 vasp.6.3.2 27Jun22 (build Jan 18 2024 14:18:24) complex
 executed on    LinuxNV_CrayMPICH date 2024.05.20  23:06:48

 INCAR:
   SYSTEM = Be4P3Rb
   ENCUT = 400
   PREC = Accurate
   ISTART = 1
   ICHARG = 0
   LCHARG = .TRUE.
   LWAVE = .TRUE.
   NEDOS = 10001
   LHFCALC = .TRUE.
   HFSCREEN = 0.2
   AEXX = 0.25
   ALGO = Normal
   GGA = PE
   ISIF = 3
   NSW = 0
   IBRION = 2
   EDIFFG = -1.0E-2
   NELM = 90
   EDIFF = 1E-5
   ISMEAR = 0
   SIGMA = 0.01
   LREAL = .FALSE.

 POTCAR:    PAW_PBE Rb_sv 06Sep2000
 POTCAR:    PAW_PBE Be_sv 06Sep2000
 POTCAR:    PAW_PBE P 06Sep2000
|           W    W    AA    RRRRR   N    N  II  N    N   GGGG   !!!           |
|           W    W   A  A   R    R  NN   N  II  NN   N  G    G  !!!           |
|           W    W  A    A  R    R  N N  N  II  N N  N  G       !!!           |
|           W WW W  AAAAAA  RRRRR   N  N N  II  N  N N  G  GGG   !            |
|           WW  WW  A    A  R   R   N   NN  II  N   NN  G    G                |
|           W    W  A    A  R    R  N    N  II  N    N   GGGG   !!!           |
|     For optimal performance we recommend to set                             |
|       NCORE = 2 up to number-of-cores-per-socket                            |
|     This setting can greatly improve the performance of VASP for DFT.       |
|     The default, NCORE=1 might be grossly inefficient on modern             |
|     multi-core architectures or massively parallel machines. Do your        |
|     Unfortunately you need to use the default for GW and RPA                |
|     calculations (for HF NCORE is supported but not extensively tested      |
|     yet).                                                                   |

   TITEL  = PAW_PBE Rb_sv 06Sep2000
   POMASS =   85.468; ZVAL   =    9.000    mass and valenz
   ENMAX  =  220.112; ENMIN  =  165.084 eV

   TITEL  = PAW_PBE Be_sv 06Sep2000
   POMASS =    9.013; ZVAL   =    4.000    mass and valenz
   ENMAX  =  308.768; ENMIN  =  231.576 eV

   TITEL  = PAW_PBE P 06Sep2000
   POMASS =   30.974; ZVAL   =    5.000    mass and valenz
   ENMAX  =  255.040; ENMIN  =  191.280 eV

  PAW_PBE Rb_sv 06Sep2000               :
  PAW_PBE Be_sv 06Sep2000               :
  PAW_PBE P 06Sep2000                   :

 POSCAR: Be4P3Rb.cif
  positions in direct lattice
  velocities in cartesian coordinates
 exchange correlation table for  LEXCH =        8
   RHO(1)=    0.500       N(1)  =     2000
   RHO(2)=  100.500       N(2)  =     4000

 ion  position               nearest neighbor table
   1  0.000  0.000  0.500-   7 3.48   8 3.48   7 3.48   8 3.48   7 3.48   8 3.48   7 3.48   8 3.48
                             4 3.94   5 3.94   4 3.94   5 3.94   2 3.94   3 3.94   2 3.94   3 3.94
   2  0.000  0.500  0.143-   7 2.16   7 2.16   6 2.30   6 2.30   1 3.94   1 3.94
   3  0.000  0.500  0.857-   8 2.16   8 2.16   6 2.30   6 2.30   1 3.94   1 3.94
   4  0.500  0.000  0.857-   8 2.16   8 2.16   6 2.30   6 2.30   1 3.94   1 3.94
   5  0.500  0.000  0.143-   7 2.16   7 2.16   6 2.30   6 2.30   1 3.94   1 3.94
   6  0.000  0.000  0.000-   2 2.30   3 2.30   4 2.30   5 2.30   2 2.30   3 2.30   4 2.30   5 2.30

   7  0.500  0.500  0.261-   2 2.16   5 2.16   5 2.16   2 2.16   1 3.48   1 3.48   1 3.48   1 3.48

   8  0.500  0.500  0.739-   3 2.16   4 2.16   4 2.16   3 2.16   1 3.48   1 3.48   1 3.48   1 3.48

  LATTYP: Found a simple tetragonal cell.
 ALAT       =     3.6444689888
 C/A-ratio  =     2.6845662960

  Lattice vectors:

 A1 = (   3.6444689888,   0.0000000000,  -0.0000000000)
 A2 = (   0.0000000000,   3.6444689888,   0.0000000000)
 A3 = (   0.0000000000,   0.0000000000,   9.7838186140)

Analysis of symmetry for initial positions (statically):
 Subroutine PRICEL returns:
 Original cell was already a primitive cell.

 Routine SETGRP: Setting up the symmetry group for a
 simple tetragonal supercell.

 Subroutine GETGRP returns: Found 16 space group operations
 (whereof 16 operations were pure point group operations)
 out of a pool of 16 trial point group operations.

The static configuration has the point symmetry D_4h.

Analysis of symmetry for dynamics (positions and initial velocities):
 Subroutine PRICEL returns:
 Original cell was already a primitive cell.

 Routine SETGRP: Setting up the symmetry group for a
 simple tetragonal supercell.

 Subroutine GETGRP returns: Found 16 space group operations
 (whereof 16 operations were pure point group operations)
 out of a pool of 16 trial point group operations.

The dynamic configuration has the point symmetry D_4h.

 Subroutine INISYM returns: Found 16 space group operations
 (whereof 16 operations are pure point group operations),
 and found     1 'primitive' translations

                                     Primitive cell

  volume of cell :     129.9502

  direct lattice vectors                    reciprocal lattice vectors
     3.644468989  0.000000000 -0.000000000     0.274388396  0.000000000  0.000000000
     0.000000000  3.644468989  0.000000000    -0.000000000  0.274388396  0.000000000
     0.000000000  0.000000000  9.783818614     0.000000000 -0.000000000  0.102209581

  length of vectors
     3.644468989  3.644468989  9.783818614     0.274388396  0.274388396  0.102209581

  position of ions in fractional coordinates (direct lattice)
     0.000000000  0.000000000  0.500000000
     0.000000000  0.500000000  0.142971773
     0.000000000  0.500000000  0.857028227
     0.500000000  0.000000000  0.857028227
     0.500000000  0.000000000  0.142971773
     0.000000000  0.000000000  0.000000000
     0.500000000  0.500000000  0.260602315
     0.500000000  0.500000000  0.739397685

  ion indices of the primitive-cell ions
   primitive index   ion index
                 1           1
                 2           2
                 3           3
                 4           4
                 5           5
                 6           6
                 7           7
                 8           8

 KPOINTS: Automatically generated mesh

Read explicit list of k-points.

 Found    282 k-points:

 Following reciprocal coordinates:
            Coordinates               Weight
  0.000000  0.000000  0.000000      0.006803
  0.142857  0.000000  0.000000      0.027211
  0.285714  0.000000  0.000000      0.027211
  0.428571  0.000000  0.000000      0.027211
  0.142857  0.142857  0.000000      0.027211
  0.285714  0.142857  0.000000      0.054422
  0.428571  0.142857  0.000000      0.054422
  0.285714  0.285714  0.000000      0.027211
  0.428571  0.285714  0.000000      0.054422
  0.428571  0.428571  0.000000      0.027211
  0.000000  0.000000  0.333333      0.013605
  0.142857  0.000000  0.333333      0.054422
  0.285714  0.000000  0.333333      0.054422
  0.428571  0.000000  0.333333      0.054422
  0.142857  0.142857  0.333333      0.054422
  0.285714  0.142857  0.333333      0.108844
  0.428571  0.142857  0.333333      0.108844
  0.285714  0.285714  0.333333      0.054422
  0.428571  0.285714  0.333333      0.108844
  0.428571  0.428571  0.333333      0.054422
  0.000000  0.000000  0.000000      0.000000
  0.000000  0.015152  0.000000      0.000000
  0.000000  0.030303  0.000000      0.000000
  0.000000  0.045455  0.000000      0.000000
  0.000000  0.060606  0.000000      0.000000
  0.000000  0.075758  0.000000      0.000000
  0.000000  0.090909  0.000000      0.000000
  0.000000  0.106061  0.000000      0.000000
  0.000000  0.121212  0.000000      0.000000
  0.000000  0.136364  0.000000      0.000000
  0.000000  0.151515  0.000000      0.000000
  0.000000  0.166667  0.000000      0.000000
  0.000000  0.181818  0.000000      0.000000
  0.000000  0.196970  0.000000      0.000000
  0.000000  0.212121  0.000000      0.000000
  0.000000  0.227273  0.000000      0.000000
  0.000000  0.242424  0.000000      0.000000
  0.000000  0.257576  0.000000      0.000000
  0.000000  0.272727  0.000000      0.000000
  0.000000  0.287879  0.000000      0.000000
  0.000000  0.303030  0.000000      0.000000
  0.000000  0.318182  0.000000      0.000000
  0.000000  0.333333  0.000000      0.000000
  0.000000  0.348485  0.000000      0.000000
  0.000000  0.363636  0.000000      0.000000
  0.000000  0.378788  0.000000      0.000000
  0.000000  0.393939  0.000000      0.000000
  0.000000  0.409091  0.000000      0.000000
  0.000000  0.424242  0.000000      0.000000
  0.000000  0.439394  0.000000      0.000000
  0.000000  0.454545  0.000000      0.000000
  0.000000  0.469697  0.000000      0.000000
  0.000000  0.484848  0.000000      0.000000
  0.000000  0.500000  0.000000      0.000000
  0.015152  0.500000  0.000000      0.000000
  0.030303  0.500000  0.000000      0.000000
  0.045455  0.500000  0.000000      0.000000
  0.060606  0.500000  0.000000      0.000000
  0.075758  0.500000  0.000000      0.000000
  0.090909  0.500000  0.000000      0.000000
[...]
  0.000000  0.500000  0.409091      0.000000
  0.000000  0.500000  0.454545      0.000000
  0.000000  0.500000  0.500000      0.000000
  0.500000  0.500000  0.000000      0.000000
  0.500000  0.500000  0.045455      0.000000
  0.500000  0.500000  0.090909      0.000000
  0.500000  0.500000  0.136364      0.000000
  0.500000  0.500000  0.181818      0.000000
  0.500000  0.500000  0.227273      0.000000
  0.500000  0.500000  0.272727      0.000000
  0.500000  0.500000  0.318182      0.000000
  0.500000  0.500000  0.363636      0.000000
  0.500000  0.500000  0.409091      0.000000
  0.500000  0.500000  0.454545      0.000000
  0.500000  0.500000  0.500000      0.000000

 Following cartesian coordinates:
            Coordinates               Weight
  0.000000  0.000000  0.000000      0.006803
  0.039198  0.000000  0.000000      0.027211
  0.078397  0.000000  0.000000      0.027211
  0.117595  0.000000  0.000000      0.027211
  0.039198  0.039198  0.000000      0.027211
  0.078397  0.039198  0.000000      0.054422
  0.117595  0.039198  0.000000      0.054422
  0.078397  0.078397  0.000000      0.027211
  0.117595  0.078397  0.000000      0.054422
  0.117595  0.117595  0.000000      0.027211
  0.000000  0.000000  0.034070      0.013605
  0.039198  0.000000  0.034070      0.054422
  0.078397  0.000000  0.034070      0.054422
  0.117595  0.000000  0.034070      0.054422
  0.039198  0.039198  0.034070      0.054422
  0.078397  0.039198  0.034070      0.108844
  0.117595  0.039198  0.034070      0.108844
  0.078397  0.078397  0.034070      0.054422
  0.117595  0.078397  0.034070      0.108844
  0.117595  0.117595  0.034070      0.054422
  0.000000  0.000000  0.000000      0.000000
  0.000000  0.004157  0.000000      0.000000
  0.000000  0.008315  0.000000      0.000000
  0.000000  0.012472  0.000000      0.000000
  0.000000  0.016630  0.000000      0.000000
  0.000000  0.020787  0.000000      0.000000
  0.000000  0.024944  0.000000      0.000000
  0.000000  0.029102  0.000000      0.000000
  0.000000  0.033259  0.000000      0.000000
  0.000000  0.037417  0.000000      0.000000
  0.000000  0.041574  0.000000      0.000000
  0.000000  0.045731  0.000000      0.000000
  0.000000  0.049889  0.000000      0.000000
  0.000000  0.054046  0.000000      0.000000
  0.000000  0.058204  0.000000      0.000000
  0.000000  0.062361  0.000000      0.000000
[...]
  336                map_scatter                           0.006023                    6   7
  337        ggaall_grid                           0.019367                            1   3
  338        m_sumb_d                              0.000245                            5   3
  339        pothar                                0.000138                            1   3
  340          m_sumb_d                              0.000070                          1   4
  341        m_bcast_d                             0.000015                            1   3
  342      potlok_metagga                        0.000000                              1   2
  343      set_dd_magatom                        0.000003                              1   2
  344      set_dd_paw                            0.052687                              1   2
  345        m_sumb_d                              0.052672                            7   3
  346      m_bcast_d                             0.000137                              2   2
  347      densta                                0.001577                              1   2
  348        m_sumb_d                              0.000758                            9   3

 Flat profile

 fock_fwd                              363.218468        3384
 redis_pw                              115.226237      166332
 phaser_hf                              92.639762      538902
 eddav                                  71.112884          16
 dllmm_trans_eccp_nl_fock_acc           58.688324      373086
 spher                                  57.233132        3686
 lapack                                 54.704056       34284
 fock_bck                               47.721198        3384
 m_sumb_d                               27.055635      151771
 m_bcast_d                              25.183254       68586
 rpromu_hf_acc                          13.148289      911988
 total_time                              9.350775           1
 m_alltoall_d                            7.530782      324900
 fock_force                              7.506625           1
 fock_set_gfac_vkpt                      7.109972      497448
 batched_fft                             6.879878     1077804
 racc0mu_hf_acc                          6.035486      538902
 eccp                                    5.592087        9024
 fft_and_gather                          5.586756        3666
 fft3d                                   4.816713      623052
 fock_all_dblbuf                         4.429613          12
 init_acc                                4.144852           1
 depsum_two_bands_rholm_trace_m          3.558096      497448
 apply_gfac_exchange_mu_acc              3.297994      497448
 fock_set_fsg                            2.487828          12
 pw_charge_trace_mu_acc                  2.348619      538902
 calc_dllmm_trans_and_overl_foc          2.320017      497448
 vhamil_trace_mu_acc                     2.198779      497448
 acc_cufft_makeplan                      2.138037          39
 fock_ace_acc_apply                      1.882915       26382
 m_bcast_z                               1.867212       47820
 fock_set_gfac_der                       1.830022       41454
 contraction                             1.516901      373086
 orth1                                   1.356509      110184
 hamiltmu                                1.251524       34284
 redis_proj                              1.171980      128958
 depsum_sym                              1.129929          12
 strenl                                  1.118513           1
 m_alltoallv_z                           1.108372         249
 w1_copy                                 1.097152      196998
 fock_set_fsg_der                        1.076915           1
 soft_charge_sym                         0.982742          12
 fftwav                                  0.887942      114894
 fock_ace_construct                      0.799188          12
 overl1                                  0.681317       41052
 reduce                                  0.618366        3384
 projmu_acc                              0.593695       25260
 fock_charge_mu                          0.562722      538902
 ggemm                                   0.528940       43308
 choleski                                0.516460        3666
 vnlac0_acc                              0.497207       41052
 overl                                   0.490506       59826
 proj1_acc                               0.481773        9024
 phase                                   0.427439       11845
 setup_precond                           0.335190        9024
 depsum_two_bands_rholm_trace_m          0.308196       41454
 projlat_der                             0.282082         282
 ggaall_grid                             0.279287          15
 newband                                 0.247203       38796
 fornl                                   0.223489           1
 vhamil                                  0.201745       34284
 map_scatter                             0.190430         249
 m_ibcast_z_from                         0.187072      386904
 apply_gfac_der_mu                       0.183974       41454
 fftext_mpi                              0.180350       41052
 w1_daxpy                                0.177978       26382
 lincom                                  0.175629        8178
 apply_precond                           0.172826       25260
 kinhamil                                0.163783       34284
 fft3d_mpi                               0.162330      508381
 w1_dot                                  0.160413        6768
 apply_gfac_weight_mu                    0.149915       41454
 fftwav_mpi                              0.141344      114894
 m_ireduce_z_to                          0.132090      324864
 wrk_allocate                            0.126967           1
 proj                                    0.082485         282
 elmin                                   0.065281           1
 proall                                  0.061581           1
 projxyz                                 0.057946         282
 acc_init_cublas                         0.051949           1
 orthch                                  0.047675           1
 pw_charge                               0.043740        1764
 w1_projall                              0.029464       25260
 force_and_stress                        0.022348           1
 acc_init_cusolver                       0.019745           1
 potlok                                  0.018184          14
 densta                                  0.014295          17
 fftbas_plan_mpi                         0.009521         223
 setdij_                                 0.007949          41
 waitred                                 0.007411        3384
 waitgth                                 0.007200        3384
 rspher_all                              0.006435          10
 map_gather                              0.004275         249
 inisym                                  0.004176           1
 truncate_high_frequency_w1              0.004080       43308
 augmentation_charge                     0.003107          12
 dfftw_execute                           0.001530          81
 map_forward                             0.001251         216
 map_backward                            0.001191         230
 wrk_deallocate                          0.001161           1
 pothar                                  0.001043          15
 forloc                                  0.000852           1
 set_dd_paw                              0.000395          15
 fewald                                  0.000369           1
 set_charge                              0.000369          12
 forhar                                  0.000343           2
 strelo                                  0.000287           1
 chggra                                  0.000286           1
 strkin                                  0.000273           1
 strehar                                 0.000260           1
 stufak                                  0.000230           1
 fftbrc_mpi                              0.000164         223
 rsp                                     0.000111           1
 fft_gq                                  0.000076          12
 vectorpot                               0.000061          14
 set_dd_magatom                          0.000059          15
 crpa_reader                             0.000025           1
 posmap                                  0.000023           2
 acc_cufft_makeplans                     0.000018           5
 rcp                                     0.000018           1
 fordep                                  0.000010           1
 potlok_metagga                          0.000002          14
 redis_pw_over_bands                     0.000000           1
 rotate_active_occupied_orbital          0.000000           1
  summed up times     1042.501934051514

 Accumulative profile

 total_time                           1042.501934           1
 elmin                                 869.697338           1
 fock_all_dblbuf                       549.383493          12
 fock_fwd                              494.318978        3384
 eddav                                 302.174088          16
 force_and_stress                      150.721137           1
 fock_force                            144.603015           1
 redis_pw                              119.202716      166332
 fock_set_gfac_vkpt                     92.787717      497448
 phaser_hf                              92.639762      538902
 dllmm_trans_eccp_nl_fock_acc           58.688324      373086
 spher                                  57.233132        3686
 lapack                                 54.704056       34284
 projlat_der                            53.493645         282
 fock_bck                               48.033441        3384
 fock_ace_acc_apply                     36.774993       26382
 m_sumb_d                               27.055635      151771
 m_bcast_d                              25.183254       68586
 fock_ace_construct                     13.782459          12
 rpromu_hf_acc                          13.148289      911988
 fock_charge_mu                         12.813119      538902
 newband                                12.407179       38796
 fock_set_gfac_der                       8.792038       41454
 m_alltoall_d                            7.530782      324900
 batched_fft                             6.879878     1077804
 racc0mu_hf_acc                          6.035486      538902
 fft_and_gather                          5.947740        3666
 eccp                                    5.592087        9024
 strenl                                  5.573931           1
 fft3d_mpi                               5.339726      508381
 fft3d                                   4.816713      623052
 redis_proj                              4.726282      128958
 init_acc                                4.144852           1
 depsum_two_bands_rholm_trace_m          3.558096      497448
 apply_gfac_exchange_mu_acc              3.297994      497448
 hamiltmu                                3.060585       34284
 orthch                                  2.751649           1
 fock_set_fsg                            2.487828          12
 pw_charge_trace_mu_acc                  2.348619      538902
 calc_dllmm_trans_and_overl_foc          2.320017      497448
 set_charge                              2.252703          12
 vhamil_trace_mu_acc                     2.198779      497448
 acc_cufft_makeplan                      2.138037          39
 fftwav_mpi                              1.985338      114894
 m_bcast_z                               1.867212       47820
 fftwav                                  1.843994      114894
 potlok                                  1.581465          14
 contraction                             1.516901      373086
 orth1                                   1.356509      110184
 fftbrc_mpi                              1.316735         223
 fftbas_plan_mpi                         1.316572         223
 wrk_allocate                            1.209411           1
 map_forward                             1.193537         216
 depsum_sym                              1.172546          12
 m_alltoallv_z                           1.108372         249
 w1_copy                                 1.097152      196998
 fock_set_fsg_der                        1.076915           1
 soft_charge_sym                         1.069708          12
 acc_cufft_makeplans                     0.988467           5
 reduce                                  0.750456        3384
 set_dd_paw                              0.737217          15
 overl1                                  0.681317       41052
 kinhamil                                0.645012       34284
 w1_projall                              0.623159       25260
 projmu_acc                              0.593695       25260
 fftext_mpi                              0.577252       41052
 ggemm                                   0.528940       43308
 choleski                                0.516460        3666
 vnlac0_acc                              0.497207       41052
 overl                                   0.490506       59826
 proj1_acc                               0.481773        9024
 phase                                   0.427439       11845
 setup_precond                           0.335190        9024
 depsum_two_bands_rholm_trace_m          0.308196       41454
 ggaall_grid                             0.279287          15
 fornl                                   0.241048           1
 vhamil                                  0.201745       34284
 map_scatter                             0.190430         249
 m_ibcast_z_from                         0.187072      386904
 apply_gfac_der_mu                       0.183974       41454
 w1_daxpy                                0.177978       26382
 lincom                                  0.175629        8178
 apply_precond                           0.172826       25260
 w1_dot                                  0.160648        6768
 proall                                  0.154932           1
 apply_gfac_weight_mu                    0.149915       41454
 m_ireduce_z_to                          0.132090      324864
 map_backward                            0.111983         230
 proj                                    0.089694         282
 projxyz                                 0.058385         282
 acc_init_cublas                         0.051949           1
 pw_charge                               0.043740        1764
 densta                                  0.029507          17
 acc_init_cusolver                       0.019745           1
 setdij_                                 0.015098          41
 augmentation_charge                     0.010080          12
 waitred                                 0.007411        3384
 waitgth                                 0.007200        3384
 rspher_all                              0.006435          10
 fft_gq                                  0.005623          12
 map_gather                              0.004275         249
 inisym                                  0.004199           1
 truncate_high_frequency_w1              0.004080       43308
 chggra                                  0.002510           1
 pothar                                  0.002255          15
 dfftw_execute                           0.001530          81
 fordep                                  0.001509           1
 wrk_deallocate                          0.001161           1
 fewald                                  0.000985           1
 forloc                                  0.000884           1
 forhar                                  0.000497           2
 strkin                                  0.000332           1
 strelo                                  0.000325           1
 strehar                                 0.000279           1
 stufak                                  0.000230           1
 rsp                                     0.000111           1
 vectorpot                               0.000061          14
 set_dd_magatom                          0.000059          15
 crpa_reader                             0.000025           1
 posmap                                  0.000023           2
 rcp                                     0.000018           1
 potlok_metagga                          0.000002          14
 redis_pw_over_bands                     0.000000           1
 rotate_active_occupied_orbital          0.000000           1

Profiling took   1.527149  0.919589  0.003881  0.003798 seconds
Profiling took   0.862283 seconds