 vasp.6.3.2 27Jun22 (build Jan 18 2024 14:18:24) complex
 executed on    LinuxNV_CrayMPICH date 2024.05.24  10:43:32

 INCAR:
   SYSTEM = B12BeN2
   ENCUT = 500
   PREC = Accurate
   ISTART = 0
   ICHARG = 2
   LCHARG = .FALSE.
   LWAVE = .FALSE.
   LHFCALC = .TRUE.
   HFSCREEN = 0.2
   AEXX = 0.25
   ALGO = All
   GGA = PE
   ISIF = 3
   NSW = 1000
   IBRION = 2
   EDIFFG = -1.0E-2
   EDIFF = 1E-5
   ISMEAR = 0
   SIGMA = 0.01

 POTCAR:    PAW_PBE Be 06Sep2000
 POTCAR:    PAW_PBE B 06Sep2000
 POTCAR:    PAW_PBE N 08Apr2002
|           W    W    AA    RRRRR   N    N  II  N    N   GGGG   !!!           |
|           W    W   A  A   R    R  NN   N  II  NN   N  G    G  !!!           |
|           W    W  A    A  R    R  N N  N  II  N N  N  G       !!!           |
|           W WW W  AAAAAA  RRRRR   N  N N  II  N  N N  G  GGG   !            |
|           WW  WW  A    A  R   R   N   NN  II  N   NN  G    G                |
|           W    W  A    A  R    R  N    N  II  N    N   GGGG   !!!           |
|     For optimal performance we recommend to set                             |
|       NCORE = 2 up to number-of-cores-per-socket                            |
|     This setting can greatly improve the performance of VASP for DFT.       |
|     The default, NCORE=1 might be grossly inefficient on modern             |
|     multi-core architectures or massively parallel machines. Do your        |
|     Unfortunately you need to use the default for GW and RPA                |
|     calculations (for HF NCORE is supported but not extensively tested      |
|     yet).                                                                   |

   TITEL  = PAW_PBE Be 06Sep2000
   POMASS =    9.013; ZVAL   =    2.000    mass and valenz
   ENMAX  =  247.543; ENMIN  =  185.658 eV

   TITEL  = PAW_PBE B 06Sep2000
   POMASS =   10.811; ZVAL   =    3.000    mass and valenz
   ENMAX  =  318.614; ENMIN  =  238.960 eV

   TITEL  = PAW_PBE N 08Apr2002
   POMASS =   14.001; ZVAL   =    5.000    mass and valenz
   ENMAX  =  400.000; ENMIN  =  300.000 eV

  PAW_PBE Be 06Sep2000                  :
  PAW_PBE B 06Sep2000                   :
  PAW_PBE N 08Apr2002                   :

 POSCAR: B12BeN2.cif
  positions in direct lattice
  velocities in cartesian coordinates
 exchange correlation table for  LEXCH =        8
   RHO(1)=    0.500       N(1)  =     2000
   RHO(2)=  100.500       N(2)  =     4000

 ion  position               nearest neighbor table
   1  0.500  0.500  0.500-  14 1.55  15 1.55
   2  0.669  0.004  0.004-  13 1.74   3 1.79   7 1.79  11 1.81   5 1.82   9 1.82
   3  0.996  0.331  0.004-  12 1.74   2 1.79   7 1.79  10 1.81   4 1.82   9 1.82
   4  0.324  0.197  0.197-  14 1.54   6 1.75  10 1.75  13 1.81   7 1.82   3 1.82
   5  0.803  0.676  0.197-  14 1.54  11 1.75   6 1.75  12 1.81   7 1.82   2 1.82
   6  0.197  0.803  0.324-  15 1.54   4 1.75   5 1.75   7 1.81  13 1.82  12 1.82
   7  0.996  0.004  0.331-   8 1.74   2 1.79   3 1.79   6 1.81   5 1.82   4 1.82
   8  0.004  0.996  0.669-   7 1.74  13 1.79  12 1.79   9 1.81  10 1.82  11 1.82
   9  0.803  0.197  0.676-  14 1.54  10 1.75  11 1.75   8 1.81   3 1.82   2 1.82
  10  0.197  0.324  0.803-  15 1.54   9 1.75   4 1.75   3 1.81   8 1.82  13 1.82
  11  0.676  0.803  0.803-  15 1.54   5 1.75   9 1.75   2 1.81   8 1.82  12 1.82
  12  0.004  0.669  0.996-   3 1.74  13 1.79   8 1.79   5 1.81  11 1.82   6 1.82
  13  0.331  0.996  0.996-   2 1.74  12 1.79   8 1.79   4 1.81  10 1.82   6 1.82
  14  0.624  0.376  0.376-   4 1.54   5 1.54   9 1.54   1 1.55
  15  0.376  0.624  0.624-  11 1.54  10 1.54   6 1.54   1 1.55

  LATTYP: Found a trigonal (rhomboedric) cell.
 ALAT       =     5.2350000000
 COS(alpha) =     0.4515363909

  Lattice vectors:

 A1 = (  -2.3637930064,   4.6709429051,   0.0000000000)
 A2 = (  -5.2350000000,   0.0000000000,   0.0000000000)
 A3 = (  -2.3637930064,   1.4530126249,   4.4391960911)

Analysis of symmetry for initial positions (statically):
 Subroutine PRICEL returns:
 Original cell was already a primitive cell.

 Routine SETGRP: Setting up the symmetry group for a
 trigonal (rhombohedral) supercell.

 Subroutine GETGRP returns: Found  2 space group operations
 (whereof  2 operations were pure point group operations)
 out of a pool of 12 trial point group operations.

The static configuration has the point symmetry C_2 .

Analysis of symmetry for dynamics (positions and initial velocities):
 Subroutine PRICEL returns:
 Original cell was already a primitive cell.

 Routine SETGRP: Setting up the symmetry group for a
 trigonal (rhombohedral) supercell.

 Subroutine GETGRP returns: Found  2 space group operations
 (whereof  2 operations were pure point group operations)
 out of a pool of 12 trial point group operations.

The dynamic configuration has the point symmetry C_2 .

 Subroutine INISYM returns: Found  2 space group operations
 (whereof  2 operations are pure point group operations),
 and found     1 'primitive' translations

                                     Primitive cell

  volume of cell :     108.5489

  direct lattice vectors                    reciprocal lattice vectors
     5.235000000  0.000000000  0.000000000     0.191021968  0.096669216  0.070074579
    -2.363793006  4.670942905  0.000000000     0.000000000  0.214089536 -0.070074579
    -2.363793006  1.453012625  4.439196091     0.000000000 -0.000000000  0.225266012

  length of vectors
     5.235000000  5.235000000  5.235000000     0.225266012  0.225266012  0.225266012

  position of ions in fractional coordinates (direct lattice)
     0.500000000  0.500000000  0.500000000
     0.669250000  0.003670000  0.003670000
     0.996330000  0.330750000  0.003670000
     0.323600000  0.197060000  0.197060000
     0.802940000  0.676400000  0.197060000
     0.197060000  0.802950000  0.323600000
     0.996330000  0.003670000  0.330750000
     0.003670000  0.996330000  0.669250000
     0.802950000  0.197060000  0.676400000
     0.197060000  0.323600000  0.802940000
     0.676400000  0.802940000  0.802940000
     0.003670000  0.669250000  0.996330000
     0.330750000  0.996330000  0.996330000
     0.623700000  0.376300000  0.376300000
     0.376300000  0.623700000  0.623700000

  ion indices of the primitive-cell ions
   primitive index   ion index
                 1           1
                 2           2
                 3           3
                 4           4
                 5           5
                 6           6
                 7           7
                 8           8
                 9           9
                10          10
                11          11
                12          12
                13          13
                14          14
                15          15

 KPOINTS: Auto

Automatic generation of k-mesh.
 Grid dimensions read from file:
 generate k-points for:    8    8    8

 Generating k-lattice:

  Cartesian coordinates                     Fractional coordinates (reciprocal lattice)
     0.023877746  0.012083652  0.008759322     0.125000000 -0.000000000 -0.000000000
     0.000000000  0.026761192 -0.008759322     0.000000000  0.125000000 -0.000000000
     0.000000000 -0.000000000  0.028158252     0.000000000  0.000000000  0.125000000

  Length of vectors
     0.028158252  0.028158252  0.028158252

  Shift w.r.t. Gamma in fractional coordinates (k-lattice)
     0.000000000  0.000000000  0.000000000

 Subroutine IBZKPT returns following result:

 Found    150 irreducible k-points:

 Following reciprocal coordinates:
            Coordinates               Weight
  0.000000  0.000000  0.000000      1.000000
  0.125000  0.000000  0.000000      4.000000
  0.000000  0.000000  0.125000      2.000000
  0.250000  0.000000  0.000000      4.000000
  0.000000  0.000000  0.250000      2.000000
  0.375000  0.000000  0.000000      4.000000
  0.000000  0.000000  0.375000      2.000000
  0.500000  0.000000  0.000000      2.000000
  0.000000  0.000000  0.500000      1.000000
  0.125000  0.125000  0.000000      2.000000
  0.000000 -0.125000  0.125000      4.000000
  0.250000  0.125000  0.000000      4.000000
  0.000000 -0.125000  0.250000      4.000000
  0.000000 -0.250000  0.125000      4.000000
  0.375000  0.125000  0.000000      4.000000
  0.000000 -0.125000  0.375000      4.000000
  0.000000 -0.375000  0.125000      4.000000
  0.500000  0.125000  0.000000      4.000000
  0.000000 -0.125000  0.500000      4.000000
  0.000000  0.500000  0.125000      4.000000
 -0.375000  0.125000  0.000000      4.000000
  0.000000 -0.125000 -0.375000      4.000000
  0.000000  0.375000  0.125000      4.000000
 -0.250000  0.125000  0.000000      4.000000
  0.000000 -0.125000 -0.250000      4.000000
  0.000000  0.250000  0.125000      4.000000
 -0.125000  0.125000  0.000000      2.000000
  0.000000 -0.125000 -0.125000      4.000000
  0.250000  0.250000  0.000000      2.000000
  0.000000 -0.250000  0.250000      4.000000
  0.375000  0.250000  0.000000      4.000000
  0.000000 -0.250000  0.375000      4.000000
  0.000000 -0.375000  0.250000      4.000000
  0.500000  0.250000  0.000000      4.000000
  0.000000 -0.250000  0.500000      4.000000
  0.000000  0.500000  0.250000      4.000000
 -0.375000  0.250000  0.000000      4.000000
  0.000000 -0.250000 -0.375000      4.000000
  0.000000  0.375000  0.250000      4.000000
 -0.250000  0.250000  0.000000      2.000000
  0.000000 -0.250000 -0.250000      4.000000
  0.375000  0.375000  0.000000      2.000000
  0.000000 -0.375000  0.375000      4.000000
  0.500000  0.375000  0.000000      4.000000
  0.000000 -0.375000  0.500000      4.000000
  0.000000  0.500000  0.375000      4.000000
 -0.375000  0.375000  0.000000      2.000000
  0.000000 -0.375000 -0.375000      4.000000
  0.500000  0.500000  0.000000      1.000000
  0.000000  0.500000  0.500000      2.000000
  0.125000  0.125000  0.125000      4.000000
  0.125000 -0.125000  0.125000      2.000000
  0.250000  0.125000  0.125000      4.000000
  0.125000 -0.125000  0.250000      2.000000
  0.375000  0.125000  0.125000      4.000000
  0.125000 -0.125000  0.375000      2.000000
  0.500000  0.125000  0.125000      4.000000
  0.125000 -0.125000  0.500000      2.000000
 -0.375000  0.125000  0.125000      4.000000
  0.125000 -0.125000 -0.375000      2.000000
[...]
 -0.250000 -0.375000  0.500000      4.000000
  0.500000  0.500000  0.250000      2.000000
  0.250000  0.500000  0.500000      4.000000
  0.375000 -0.375000  0.250000      2.000000
  0.250000  0.375000  0.375000      4.000000
  0.375000  0.375000  0.375000      4.000000
  0.375000 -0.375000  0.375000      2.000000
  0.500000  0.375000  0.375000      4.000000
  0.375000 -0.375000  0.500000      2.000000
 -0.375000  0.375000  0.375000      2.000000
  0.375000  0.500000  0.375000      4.000000
 -0.375000 -0.375000  0.500000      2.000000
  0.500000  0.500000  0.375000      2.000000
  0.375000  0.500000  0.500000      4.000000
  0.500000  0.500000  0.500000      1.000000

 Following cartesian coordinates:
            Coordinates               Weight
  0.000000  0.000000  0.000000      1.000000
  0.023878  0.012084  0.008759      4.000000
  0.000000  0.000000  0.028158      2.000000
  0.047755  0.024167  0.017519      4.000000
[...]
 batched_fft                            95.622363    15360000
 racc0mu_hf_acc                         82.868050     7680000
 spher                                  80.980415       11820
 fock_force                             78.712737           6
 redis_pw                               70.663953       72723
 fft3d                                  57.187170     7787726
 edwav                                  50.138799          82
 apply_gfac_exchange_mu_acc             47.185994     7219200
 m_sumb_d                               42.714612       39392
 pw_charge_trace_mu_acc                 32.212863     7680000
 vhamil_trace_mu_acc                    31.200893     7219200
 fock_all_dblbuf                        29.533632          94
 acc_cufft_makeplan                     28.318896         121
 redis_proj                             25.873611      172740
 depsum_two_bands_rholm_trace_m         25.395816     3609600
 fft_and_gather                         23.105168       15000
 lincom                                 22.261235       39600
 depsum_two_bands_rholm_trace_m         22.010700     3148800
 fftwav                                 20.386362     2301135
 fock_set_gfac_der                      20.199676      460800
 contraction                            17.112350     4147200
 calc_dllmm_trans_and_overl_foc         16.393384     3609600
 calc_dllmm_trans_and_overl_foc         14.300732     3148800
 fock_set_fsg_der                       13.838923           6
 w1_copy                                12.596693     2300055
 soft_charge_sym                         9.754923          88
 depsum_sym                              9.275567          88
 total_time                              8.437558           1
 fock_charge_mu                          8.317243     7680000
 fock_set_fsg                            7.499622           6
 eddav                                   7.426892           5
 m_alltoall_d                            7.168488      245463
 lapack                                  5.763919        2835
 vnlac0_acc                              5.083335       23085
 init_acc                                4.528969           1
 eddiag                                  3.852816          52
 depsum_two_bands_rholm_trace_m          3.373812      460800
 m_bcast_d                               3.247279        5790
 phase                                   3.016524       33606
 eccp                                    2.927977       25350
 depsum_two_bands_rholm_trace_m          2.700067      384000
 strenl                                  2.612525           6
 ggaall_grid                             2.585762         101
 fftwav_mpi                              2.578709     2301135
 orthch                                  2.178050          88
 wrk_allocate                            2.054709           6
 apply_gfac_der_mu                       2.020133      460800
 map_scatter                             1.851199        1666
 reduce                                  1.797711       14100
 calc_dllmm_trans_and_overl_foc          1.709251      384000
 fft3d_mpi                               1.706524     5488074
 apply_gfac_weight_mu                    1.660576      460800
 m_alltoallv_z                           1.567345        1666
 choleski                                1.267979       13350
 pw_charge                               1.224628       45056
 proj1_acc                               1.125424       20550
 overl                                   1.007144       38220
 brgrid                                  0.635512           1
 projlat_der                             0.586737         900
 m_ibcast_z_from                         0.563979     1140000
 depsum_two_bands_rholm_trace_m          0.529383       76800
 orth1                                   0.479383       28905
 fornl                                   0.409806           6
 m_ireduce_z_to                          0.397286      902400
 calc_dllmm_trans_and_overl_foc          0.346085       76800
 m_bcast_z                               0.343240        7635
 overl1                                  0.335239       16935
 fftext_mpi                              0.269625       24735
 proj                                    0.222497         900
 projxyz                                 0.220769         900
 elmin_all                               0.208924           6
 w1_dot                                  0.172337        6300
 hamilt_local                            0.130469        7800
 vhamil                                  0.122566       10635
 hamiltmu                                0.121495        2835
 kinhamil                                0.119512       10635
 potlok                                  0.110191          95
 proall                                  0.105382           6
 rspher_all                              0.084595          60
 setdij_                                 0.076943         252
 force_and_stress                        0.069973           6
 fftbas_plan_mpi                         0.067902        1483
 w1_dscal                                0.050802        6150
 projmu_acc                              0.048354        2085
 ggemm                                   0.038081        2835
 augmentation_charge                     0.036653          88
 fock_ace_construct                      0.035412           1
 acc_init_cublas                         0.033533           1
 waitred                                 0.032291       14100
 waitgth                                 0.032124       14100
 fock_ace_acc_apply                      0.031221         459
 map_gather                              0.030322        1666
 setup_precond                           0.028317         750
 wavpre_noio                             0.024930           5
 newband                                 0.021572        3585
 acc_init_cusolver                       0.020014           1
 dfftw_execute                           0.019082         741
 apply_precond                           0.014238        2085
 redis_pw_all                            0.013259          82
 densta                                  0.009599          99
 map_backward                            0.008687        1564
 map_forward                             0.008161        1402
 wrk_deallocate                          0.007437           6
 pothar                                  0.007153          95
 inisym                                  0.003819           1
 w1_daxpy                                0.002931         459
 set_charge                              0.002873          88
 set_dd_paw                              0.002527         101
 w1_projall                              0.002494        2085
 stufak                                  0.002269           6
 strehar                                 0.001999           6
 forloc                                  0.001757           6
 strelo                                  0.001642           6
 forhar                                  0.001179           6
 fft_gq                                  0.001110          88
 rsp                                     0.001071           6
 strkin                                  0.001022           6
 fftbrc_mpi                              0.000885        1483
 fewald                                  0.000372           6
 truncate_high_frequency_w1              0.000355        3585
 shift_bands_between_low_high            0.000218        1650
 rcp                                     0.000142           6
 fordep                                  0.000049           6
 redis_pw_over_bands                     0.000048          93
 set_dd_magatom                          0.000044          12
 crpa_reader                             0.000025           1
 acc_cufft_makeplans                     0.000017           5
 potlok_metagga                          0.000011          95
 posmap                                  0.000009           2
 vectorpot                               0.000004           1
 rotate_active_occupied_orbital          0.000002           6
  summed up times     10389.23984789848

 Accumulative profile

 total_time                          10389.239848           1
 fock_all_dblbuf                      8832.493635          94
 elmin_all                            8639.462040           6
 fock_fwd                             8512.125386       14100
 eddiag                               4898.625343          52
 edwav                                4058.698609          82
 phaser_hf                            4046.713158     7680000
 fock_set_gfac_vkpt                   3904.088350     7219200
 force_and_stress                     1242.178414           6
 fock_force                           1225.171092           6
 dllmm_trans_eccp_nl_fock_acc          670.028094     4147200
 fock_set_gfac_der                     267.142575      460800
 fock_bck                              261.403527       14100
 fock_charge_mu                        177.407934     7680000
 rpromu_hf_acc                         161.793070    11827200
 batched_fft                            95.622363    15360000
 racc0mu_hf_acc                         82.868050     7680000
 spher                                  80.980415       11820
 redis_pw                               72.419695       72723
 projlat_der                            69.105126         900
 fft3d                                  57.187170     7787726
 apply_gfac_exchange_mu_acc             47.185994     7219200
 fft3d_mpi                              45.702535     5488074
 m_sumb_d                               42.714612       39392
 fftwav_mpi                             39.709814     2301135
 orthch                                 38.384659          88
 fftwav                                 37.131104     2301135
 pw_charge_trace_mu_acc                 32.212863     7680000
 redis_proj                             31.286356      172740
 vhamil_trace_mu_acc                    31.200893     7219200
 eddav                                  30.030715           5
 acc_cufft_makeplan                     28.318896         121
 depsum_two_bands_rholm_trace_m         25.395816     3609600
 fft_and_gather                         24.091448       15000
 set_charge                             22.766905          88
 lincom                                 22.261235       39600
 depsum_two_bands_rholm_trace_m         22.010700     3148800
 contraction                            17.112350     4147200
 calc_dllmm_trans_and_overl_foc         16.393384     3609600
 wrk_allocate                           15.971748           6
 strenl                                 15.930376           6
 calc_dllmm_trans_and_overl_foc         14.300732     3148800
 fock_set_fsg_der                       13.838923           6
 soft_charge_sym                        13.184872          88
 w1_copy                                12.596693     2300055
 redis_pw_over_bands                    10.117255          93
 redis_pw_all                           10.117207          82
 depsum_sym                              9.510455          88
 fock_set_fsg                            7.499622           6
 m_alltoall_d                            7.168488      245463
 potlok                                  6.016641          95
 lapack                                  5.763919        2835
 vnlac0_acc                              5.083335       23085
 init_acc                                4.528969           1
 acc_cufft_makeplans                     4.028679           5
 fftbrc_mpi                              3.553583        1483
 fftbas_plan_mpi                         3.552699        1483
 depsum_two_bands_rholm_trace_m          3.373812      460800
 m_bcast_d                               3.247279        5790
 set_dd_paw                              3.196281         101
 phase                                   3.016524       33606
 eccp                                    2.927977       25350
 depsum_two_bands_rholm_trace_m          2.700067      384000
 ggaall_grid                             2.585762         101
 map_forward                             2.427197        1402
 reduce                                  2.194997       14100
 apply_gfac_der_mu                       2.020133      460800
 map_scatter                             1.851199        1666
 calc_dllmm_trans_and_overl_foc          1.709251      384000
 apply_gfac_weight_mu                    1.660576      460800
 m_alltoallv_z                           1.567345        1666
 newband                                 1.310165        3585
 choleski                                1.267979       13350
 pw_charge                               1.224628       45056
 proj1_acc                               1.125424       20550
 map_backward                            1.038518        1564
 overl                                   1.007144       38220
 fock_ace_acc_apply                      0.880951         459
 brgrid                                  0.635512           1
 hamilt_local                            0.590552        7800
 m_ibcast_z_from                         0.563979     1140000
 depsum_two_bands_rholm_trace_m          0.529383       76800
 fornl                                   0.492845           6
 fftext_mpi                              0.482783       24735
 orth1                                   0.479383       28905
 fock_ace_construct                      0.450353           1
 kinhamil                                0.402423       10635
 m_ireduce_z_to                          0.397286      902400
 proall                                  0.350071           6
 calc_dllmm_trans_and_overl_foc          0.346085       76800
 m_bcast_z                               0.343240        7635
 overl1                                  0.335239       16935
 hamiltmu                                0.267558        2835
 proj                                    0.235199         900
 projxyz                                 0.222290         900
 w1_dot                                  0.172566        6300
 setdij_                                 0.136524         252
 vhamil                                  0.122566       10635
 rspher_all                              0.084595          60
 augmentation_charge                     0.068705          88
 densta                                  0.067578          99
 fft_gq                                  0.051848          88
 w1_projall                              0.050848        2085
 w1_dscal                                0.050802        6150
 projmu_acc                              0.048354        2085
 ggemm                                   0.038081        2835
 acc_init_cublas                         0.033533           1
 waitred                                 0.032291       14100
 waitgth                                 0.032124       14100
 map_gather                              0.030322        1666
 setup_precond                           0.028317         750
 wavpre_noio                             0.026758           5
 pothar                                  0.021462          95
 acc_init_cusolver                       0.020014           1
 dfftw_execute                           0.019082         741
 apply_precond                           0.014238        2085
 fordep                                  0.013563           6
 wrk_deallocate                          0.007437           6
 inisym                                  0.003828           1
 forloc                                  0.003503           6
 fewald                                  0.003305           6
 w1_daxpy                                0.002931         459
 stufak                                  0.002269           6
 strehar                                 0.002215           6
 forhar                                  0.002199           6
 strelo                                  0.001978           6
 strkin                                  0.001315           6
 rsp                                     0.001071           6
 truncate_high_frequency_w1              0.000355        3585
 shift_bands_between_low_high            0.000218        1650
 rcp                                     0.000142           6
 set_dd_magatom                          0.000044          12
 crpa_reader                             0.000025           1
 potlok_metagga                          0.000011          95
 posmap                                  0.000009           2
 vectorpot                               0.000004           1
 rotate_active_occupied_orbital          0.000002           6

Profiling took  14.561865  9.561238  0.003805  0.003709 seconds
Profiling took   9.371830 seconds