 vasp.6.3.2 27Jun22 (build Jan 18 2024 14:18:24) complex
 executed on    LinuxNV_CrayMPICH date 2024.05.26  12:37:27

 INCAR:
   SYSTEM = B12BeN2
   ENCUT = 500
   PREC = Accurate
   ISTART = 0
   ICHARG = 2
   LCHARG = .FALSE.
   LWAVE = .TRUE.
   LHFCALC = .TRUE.
   HFSCREEN = 0.2
   AEXX = 0.25
   ALGO = All
   GGA = PE
   ISIF = 3
   NSW = 0
   IBRION = 2
   EDIFFG = -1.0E-2
   EDIFF = 1E-5
   ISMEAR = 0
   SIGMA = 0.01

 POTCAR:    PAW_PBE Be 06Sep2000
 POTCAR:    PAW_PBE B 06Sep2000
 POTCAR:    PAW_PBE N 08Apr2002
|           W    W    AA    RRRRR   N    N  II  N    N   GGGG   !!!           |
|           W    W   A  A   R    R  NN   N  II  NN   N  G    G  !!!           |
|           W    W  A    A  R    R  N N  N  II  N N  N  G       !!!           |
|           W WW W  AAAAAA  RRRRR   N  N N  II  N  N N  G  GGG   !            |
|           WW  WW  A    A  R   R   N   NN  II  N   NN  G    G                |
|           W    W  A    A  R    R  N    N  II  N    N   GGGG   !!!           |
|     For optimal performance we recommend to set                             |
|       NCORE = 2 up to number-of-cores-per-socket                            |
|     This setting can greatly improve the performance of VASP for DFT.       |
|     The default, NCORE=1 might be grossly inefficient on modern             |
|     multi-core architectures or massively parallel machines. Do your        |
|     Unfortunately you need to use the default for GW and RPA                |
|     calculations (for HF NCORE is supported but not extensively tested      |
|     yet).                                                                   |

   TITEL  = PAW_PBE Be 06Sep2000
   POMASS =    9.013; ZVAL   =    2.000    mass and valenz
   ENMAX  =  247.543; ENMIN  =  185.658 eV

   TITEL  = PAW_PBE B 06Sep2000
   POMASS =   10.811; ZVAL   =    3.000    mass and valenz
   ENMAX  =  318.614; ENMIN  =  238.960 eV

   TITEL  = PAW_PBE N 08Apr2002
   POMASS =   14.001; ZVAL   =    5.000    mass and valenz
   ENMAX  =  400.000; ENMIN  =  300.000 eV

  PAW_PBE Be 06Sep2000                  :
  PAW_PBE B 06Sep2000                   :
  PAW_PBE N 08Apr2002                   :

 POSCAR: B12BeN2.cif
  positions in direct lattice
  velocities in cartesian coordinates
 exchange correlation table for  LEXCH =        8
   RHO(1)=    0.500       N(1)  =     2000
   RHO(2)=  100.500       N(2)  =     4000

 ion  position               nearest neighbor table
   1  0.500  0.500  0.500-  14 1.54  15 1.54
   2  0.669  0.003  0.003-  13 1.73   7 1.79   3 1.79  11 1.80   5 1.81   9 1.81
   3  0.997  0.331  0.003-  12 1.73   7 1.79   2 1.79  10 1.80   4 1.81   9 1.81
   4  0.324  0.197  0.197-  14 1.53  10 1.74   6 1.74  13 1.80   3 1.81   7 1.81
   5  0.803  0.676  0.197-  14 1.53  11 1.74   6 1.74  12 1.80   7 1.81   2 1.81
   6  0.197  0.803  0.324-  15 1.53   4 1.74   5 1.74   7 1.80  12 1.81  13 1.81
   7  0.997  0.003  0.331-   8 1.73   3 1.79   2 1.79   6 1.80   5 1.81   4 1.81
   8  0.003  0.997  0.669-   7 1.73  13 1.79  12 1.79   9 1.80  11 1.81  10 1.81
   9  0.803  0.197  0.676-  14 1.53  10 1.74  11 1.74   8 1.80   2 1.81   3 1.81
  10  0.197  0.324  0.803-  15 1.53   4 1.74   9 1.74   3 1.80  13 1.81   8 1.81
  11  0.676  0.803  0.803-  15 1.53   5 1.74   9 1.74   2 1.80   8 1.81  12 1.81
  12  0.003  0.669  0.997-   3 1.73   8 1.79  13 1.79   5 1.80  11 1.81   6 1.81
  13  0.331  0.997  0.997-   2 1.73   8 1.79  12 1.79   4 1.80  10 1.81   6 1.81
  14  0.623  0.377  0.377-   9 1.53   5 1.53   4 1.53   1 1.54
  15  0.377  0.623  0.623-   6 1.53  11 1.53  10 1.53   1 1.54

  LATTYP: Found a trigonal (rhomboedric) cell.
 ALAT       =     5.2112899275
 COS(alpha) =     0.4521624842

  Lattice vectors:

 A1 = (  -5.2112894376,   0.0018319752,   0.0013229265)
 A2 = (  -2.3547171185,   1.4474337186,   4.4178871299)
 A3 = (  -2.3547214094,   4.6489598882,   0.0013229265)

Analysis of symmetry for initial positions (statically):
 Subroutine PRICEL returns:
 Original cell was already a primitive cell.

 Routine SETGRP: Setting up the symmetry group for a
 trigonal (rhombohedral) supercell.

 Subroutine GETGRP returns: Found 12 space group operations
 (whereof 12 operations were pure point group operations)
 out of a pool of 12 trial point group operations.

The static configuration has the point symmetry D_3d.

Analysis of symmetry for dynamics (positions and initial velocities):
 Subroutine PRICEL returns:
 Original cell was already a primitive cell.

 Routine SETGRP: Setting up the symmetry group for a
 trigonal (rhombohedral) supercell.

 Subroutine GETGRP returns: Found 12 space group operations
 (whereof 12 operations were pure point group operations)
 out of a pool of 12 trial point group operations.

The dynamic configuration has the point symmetry D_3d.

 Subroutine INISYM returns: Found 12 space group operations
 (whereof 12 operations are pure point group operations),
 and found     1 'primitive' translations

                                     Primitive cell

  volume of cell :     106.9935

  direct lattice vectors                    reciprocal lattice vectors
     5.211289438 -0.001831975 -0.001322927     0.191943144  0.097200111  0.070459267
    -2.354721409  4.648959888  0.001322927     0.000057748  0.215151177 -0.070459267
    -2.354717119  1.447433719  4.417887130     0.000057460 -0.000035320  0.226394744

  length of vectors
     5.211289927  5.211289927  5.211284273     0.226394657  0.226394657  0.226394754

  position of ions in fractional coordinates (direct lattice)
     0.499999938  0.499999938  0.500000000
     0.669343160  0.003255530  0.003255088
     0.996745697  0.330658076  0.003255352
     0.323960958  0.197328566  0.197327311
     0.802673069  0.676040595  0.197327434
     0.197328166  0.802673479  0.323960872
     0.996745119  0.003256033  0.330657275
     0.003256033  0.996745119  0.669342725
     0.802673479  0.197328166  0.676039128
     0.197328566  0.323960958  0.802672689
     0.676040595  0.802673069  0.802672566
     0.003255530  0.669343160  0.996744912
     0.330658076  0.996745697  0.996744648
     0.623427178  0.376574435  0.376575646
     0.376574435  0.623427178  0.623424354

  ion indices of the primitive-cell ions
   primitive index   ion index
                 1           1
                 2           2
                 3           3
                 4           4
                 5           5
                 6           6
                 7           7
                 8           8
                 9           9
                10          10
                11          11
                12          12
                13          13
                14          14
                15          15

 KPOINTS: Auto

Automatic generation of k-mesh.
 Grid dimensions read from file:
 generate k-points for:    8    8    8

 Generating k-lattice:

  Cartesian coordinates                     Fractional coordinates (reciprocal lattice)
     0.023992893  0.012150014  0.008807408     0.125000000 -0.000000000  0.000000000
     0.000007218  0.026893897 -0.008807408    -0.000000000  0.125000000 -0.000000000
     0.000007182 -0.000004415  0.028299343     0.000000000 -0.000000000  0.125000000

  Length of vectors
     0.028299332  0.028299332  0.028299344

  Shift w.r.t. Gamma in fractional coordinates (k-lattice)
     0.000000000  0.000000000  0.000000000

 Subroutine IBZKPT returns following result:

 Found     65 irreducible k-points:

 Following reciprocal coordinates:
            Coordinates               Weight
  0.000000  0.000000  0.000000      1.000000
  0.125000  0.000000  0.000000      6.000000
  0.250000  0.000000  0.000000      6.000000
  0.375000  0.000000  0.000000      6.000000
  0.500000  0.000000  0.000000      3.000000
  0.125000  0.125000  0.000000      6.000000
  0.250000  0.125000  0.000000     12.000000
  0.375000  0.125000  0.000000     12.000000
  0.500000  0.125000  0.000000     12.000000
 -0.375000  0.125000  0.000000     12.000000
 -0.250000  0.125000  0.000000     12.000000
 -0.125000  0.125000  0.000000      6.000000
  0.250000  0.250000  0.000000      6.000000
  0.375000  0.250000  0.000000     12.000000
  0.500000  0.250000  0.000000     12.000000
 -0.375000  0.250000  0.000000     12.000000
 -0.250000  0.250000  0.000000      6.000000
  0.375000  0.375000  0.000000      6.000000
  0.500000  0.375000  0.000000     12.000000
 -0.375000  0.375000  0.000000      6.000000
  0.500000  0.500000  0.000000      3.000000
  0.125000  0.125000  0.125000      6.000000
  0.250000  0.125000  0.125000      6.000000
  0.375000  0.125000  0.125000      6.000000
  0.500000  0.125000  0.125000      6.000000
 -0.375000  0.125000  0.125000      6.000000
 -0.250000  0.125000  0.125000      6.000000
 -0.125000  0.125000  0.125000      2.000000
  0.125000  0.250000  0.125000     12.000000
  0.250000  0.250000  0.125000     12.000000
  0.375000  0.250000  0.125000     12.000000
  0.500000  0.250000  0.125000     12.000000
 -0.375000  0.250000  0.125000     12.000000
 -0.250000  0.250000  0.125000      6.000000
  0.125000  0.375000  0.125000     12.000000
  0.250000  0.375000  0.125000     12.000000
  0.375000  0.375000  0.125000     12.000000
  0.500000  0.375000  0.125000     12.000000
 -0.375000  0.375000  0.125000      6.000000
  0.125000  0.500000  0.125000      6.000000
  0.250000  0.500000  0.125000     12.000000
  0.375000  0.500000  0.125000     12.000000
  0.500000  0.500000  0.125000      6.000000
  0.250000 -0.375000  0.125000     12.000000
  0.375000 -0.375000  0.125000      6.000000
  0.250000 -0.250000  0.125000      6.000000
  0.250000  0.250000  0.250000      6.000000
  0.375000  0.250000  0.250000      6.000000
  0.500000  0.250000  0.250000      6.000000
 -0.375000  0.250000  0.250000      6.000000
 -0.250000  0.250000  0.250000      2.000000
  0.250000  0.375000  0.250000     12.000000
  0.375000  0.375000  0.250000     12.000000
  0.500000  0.375000  0.250000     12.000000
 -0.375000  0.375000  0.250000      6.000000
  0.250000  0.500000  0.250000      6.000000
  0.375000  0.500000  0.250000     12.000000
  0.500000  0.500000  0.250000      6.000000
  0.375000 -0.375000  0.250000      6.000000
  0.375000  0.375000  0.375000      6.000000
  0.500000  0.375000  0.375000      6.000000
 -0.375000  0.375000  0.375000      2.000000
  0.375000  0.500000  0.375000      6.000000
  0.500000  0.500000  0.375000      6.000000
  0.500000  0.500000  0.500000      1.000000

 Following cartesian coordinates:
            Coordinates               Weight
  0.000000  0.000000  0.000000      1.000000
  0.023993  0.012150  0.008807      6.000000
  0.047986  0.024300  0.017615      6.000000
  0.071979  0.036450  0.026422      6.000000
  0.095972  0.048600  0.035230      3.000000
  0.024000  0.039044  0.000000      6.000000
  0.047993  0.051194  0.008807     12.000000
  0.071986  0.063344  0.017615     12.000000
  0.095979  0.075494  0.026422     12.000000
 -0.071971 -0.009556 -0.035230     12.000000
 -0.047979  0.002594 -0.026422     12.000000
 -0.023986  0.014744 -0.017615      6.000000
  0.048000  0.078088  0.000000      6.000000
  0.071993  0.090238  0.008807     12.000000
[...]

 Flat profile

 fock_fwd                              555.872223        1430
 phaser_hf                             403.624290      765440
 dllmm_trans_eccp_nl_fock_acc           47.760281      299520
 fock_bck                               41.384280        1430
 rpromu_hf_acc                          14.899427     1064960
 redis_pw                               14.397779       16838
 fock_set_gfac_vkpt                     10.658560      732160
 batched_fft                             9.682245     1530880
 racc0mu_hf_acc                          8.243782      765440
 m_sumb_d                                7.660217       15042
 edwav                                   7.256724          20
 total_time                              6.256025           1
 fock_force                              5.893922           1
 fft3d                                   5.785876      792001
 apply_gfac_exchange_mu_acc              4.899439      732160
 eddav                                   4.725596           5
 acc_cufft_makeplan                      4.582709          49
 brgrid                                  4.316701           1
 init_acc                                4.005484           1
 redis_proj                              3.713818       27068
 lapack                                  3.621026        2282
 lincom                                  3.354342        4420
 spher                                   3.325026         865
 pw_charge_trace_mu_acc                  3.323872      765440
 fock_all_dblbuf                         3.320279          22
 vhamil_trace_mu_acc                     3.292281      732160
 depsum_sym                              2.798866          21
 depsum_two_bands_rholm_trace_m          2.601808      366080
 soft_charge_sym                         2.558692          21
 depsum_two_bands_rholm_trace_m          2.365262      332800
 fock_set_fsg_der                        2.321037           1
 m_alltoall_d                            2.066358       63536
 calc_dllmm_trans_and_overl_foc          1.723578      366080
 wrk_allocate                            1.646910           1
 m_bcast_d                               1.605903        4591
 calc_dllmm_trans_and_overl_foc          1.566918      332800
 fftwav                                  1.544415      107777
 fock_set_gfac_der                       1.464917       33280
 fft_and_gather                          1.421261        1495
 fock_set_fsg                            1.228898           1
 contraction                             1.210294      299520
 m_alltoallv_z                           1.071131         397
 eccp                                    0.901663        5850
 vnlac0_acc                              0.817563        6442
 ggaall_grid                             0.795364          24
 fock_charge_mu                          0.751668      765440
 w1_copy                                 0.633119      111171
 map_scatter                             0.393615         397
 eddiag                                  0.337049          11
 pw_charge                               0.287700       10752
 orthch                                  0.265379          21
 strenl                                  0.264081           1
 phase                                   0.258097        3316
 depsum_two_bands_rholm_trace_m          0.239341       33280
 depsum_two_bands_rholm_trace_m          0.235178       33280
 m_bcast_z                               0.233907        5402
 reduce                                  0.231544        1430
 fft3d_mpi                               0.208962      684577
 choleski                                0.203877        1430
 orth1                                   0.173082       11136
 proj1_acc                               0.172297        3380
 overl                                   0.156975        7944
 calc_dllmm_trans_and_overl_foc          0.154377       33280
 apply_gfac_der_mu                       0.146435       33280
 fftwav_mpi                              0.138032      107777
 apply_gfac_weight_mu                    0.121323       33280
 hamiltmu                                0.097152        2282
 overl1                                  0.095191        5142
 m_ibcast_z_from                         0.077793      154440
 projlat_der                             0.057757          65
 fftext_mpi                              0.057747        6572
 m_ireduce_z_to                          0.056634      137280
 elmin_all                               0.047801           1
 fornl                                   0.044540           1
 proall                                  0.044150           1
 w1_dot                                  0.038746        1430
 projmu_acc                              0.037333        1632
 ggemm                                   0.035551        2932
 acc_init_cublas                         0.033069           1
 vhamil                                  0.032782        3712
 potlok                                  0.031242          23
 fock_ace_acc_apply                      0.031062         446
 kinhamil                                0.030406        3712
 setup_precond                           0.024498         650
 hamilt_local                            0.023479        1430
 setdij_                                 0.019741          50
 proj                                    0.018697          65
 acc_init_cusolver                       0.018522           1
 projxyz                                 0.017184          65
 newband                                 0.016629        2607
 fock_ace_construct                      0.015775           1
 rspher_all                              0.015551          10
 fftbas_plan_mpi                         0.015336         353
 w1_dscal                                0.012720        1300
 apply_precond                           0.010997        1632
 augmentation_charge                     0.010423          21
 force_and_stress                        0.008144           1
 map_gather                              0.007849         397
 inisym                                  0.004423           1
 dfftw_execute                           0.003795         129
 waitred                                 0.003244        1430
 waitgth                                 0.003108        1430
 w1_daxpy                                0.002825         446
 densta                                  0.002536          32
 map_backward                            0.002150         372
 map_forward                             0.002023         334
 w1_projall                              0.001716        1632
 pothar                                  0.001627          23
 redis_pw_all                            0.001505          20
 wrk_deallocate                          0.001244           1
 forloc                                  0.000902           1
 set_charge                              0.000786          21
 set_dd_paw                              0.000643          24
 stufak                                  0.000587           1
 strehar                                 0.000361           1
 fewald                                  0.000353           1
 truncate_high_frequency_w1              0.000325        2932
 strelo                                  0.000312           1
 forhar                                  0.000248           1
 fft_gq                                  0.000247          21
 fftbrc_mpi                              0.000242         353
 strkin                                  0.000173           1
 rsp                                     0.000173           1
 posmap                                  0.000041           2
 rcp                                     0.000027           1
 crpa_reader                             0.000025           1
 fordep                                  0.000023           1
 acc_cufft_makeplans                     0.000018           5
 redis_pw_over_bands                     0.000015          21
 set_dd_magatom                          0.000008           2
 shift_bands_between_low_high            0.000007          65
 vectorpot                               0.000004           1
 potlok_metagga                          0.000000          23
 rotate_active_occupied_orbital          0.000000           1
  summed up times     1224.293291807175

 Accumulative profile

 total_time                           1224.293292           1
 elmin_all                            1115.959522           1
 fock_all_dblbuf                      1056.675818          22
 fock_fwd                             1007.631115        1430
 eddiag                                532.111432          11
 edwav                                 508.561921          20
 phaser_hf                             403.624290      765440
 fock_set_gfac_vkpt                    396.471089      732160
 force_and_stress                       89.462043           1
 fock_force                             88.076549           1
 dllmm_trans_eccp_nl_fock_acc           47.760281      299520
 fock_bck                               41.517448        1430
 fock_set_gfac_der                      19.276678       33280
 eddav                                  18.368609           5
 fock_charge_mu                         17.760912      765440
 rpromu_hf_acc                          14.899427     1064960
 redis_pw                               14.831666       16838
 batched_fft                             9.682245     1530880
 racc0mu_hf_acc                          8.243782      765440
 m_sumb_d                                7.660217       15042
 fft3d_mpi                               6.686538      684577
 orthch                                  6.110571          21
 set_charge                              5.913438          21
 fft3d                                   5.785876      792001
 redis_proj                              5.346288       27068
 apply_gfac_exchange_mu_acc              4.899439      732160
 acc_cufft_makeplan                      4.582709          49
 brgrid                                  4.316701           1
 init_acc                                4.005484           1
 wrk_allocate                            3.981859           1
 lapack                                  3.621026        2282
 lincom                                  3.354342        4420
 spher                                   3.325026         865
 pw_charge_trace_mu_acc                  3.323872      765440
 vhamil_trace_mu_acc                     3.292281      732160
 soft_charge_sym                         3.035826          21
 depsum_sym                              2.854088          21
 depsum_two_bands_rholm_trace_m          2.601808      366080
 projlat_der                             2.513525          65
 fftwav_mpi                              2.486887      107777
 depsum_two_bands_rholm_trace_m          2.365262      332800
 fftwav                                  2.348855      107777
 fock_set_fsg_der                        2.321037           1
 potlok                                  2.270779          23
 m_alltoall_d                            2.066358       63536
 calc_dllmm_trans_and_overl_foc          1.723578      366080
 m_bcast_d                               1.605903        4591
 fft_and_gather                          1.569848        1495
 calc_dllmm_trans_and_overl_foc          1.566918      332800
 redis_pw_over_bands                     1.502728          21
 redis_pw_all                            1.502712          20
 fftbrc_mpi                              1.496140         353
 fftbas_plan_mpi                         1.495898         353
 strenl                                  1.231494           1
 fock_set_fsg                            1.228898           1
 map_forward                             1.226278         334
 contraction                             1.210294      299520
 m_alltoallv_z                           1.071131         397
 acc_cufft_makeplans                     1.018416           5
 eccp                                    0.901663        5850
 newband                                 0.894318        2607
 vnlac0_acc                              0.817563        6442
 ggaall_grid                             0.795364          24
 set_dd_paw                              0.746273          24
 w1_copy                                 0.633119      111171
 fock_ace_acc_apply                      0.616039         446
 map_scatter                             0.393615         397
 reduce                                  0.288179        1430
 pw_charge                               0.287700       10752
 fock_ace_construct                      0.271337           1
 phase                                   0.258097        3316
 map_backward                            0.250489         372
 depsum_two_bands_rholm_trace_m          0.239341       33280
 depsum_two_bands_rholm_trace_m          0.235178       33280
 m_bcast_z                               0.233907        5402
 hamiltmu                                0.214965        2282
 choleski                                0.203877        1430
 orth1                                   0.173082       11136
 proj1_acc                               0.172297        3380
 overl                                   0.156975        7944
 calc_dllmm_trans_and_overl_foc          0.154377       33280
 apply_gfac_der_mu                       0.146435       33280
 apply_gfac_weight_mu                    0.121323       33280
 fftext_mpi                              0.114668        6572
 hamilt_local                            0.108642        1430
 kinhamil                                0.105076        3712
 overl1                                  0.095191        5142
 m_ibcast_z_from                         0.077793      154440
 proall                                  0.066205           1
 m_ireduce_z_to                          0.056634      137280
 fornl                                   0.050712           1
 w1_projall                              0.039048        1632
 w1_dot                                  0.038998        1430
 projmu_acc                              0.037333        1632
 ggemm                                   0.035551        2932
 acc_init_cublas                         0.033069           1
 setdij_                                 0.032905          50
 vhamil                                  0.032782        3712
 setup_precond                           0.024498         650
 augmentation_charge                     0.022738          21
 proj                                    0.020579          65
 acc_init_cusolver                       0.018522           1
 projxyz                                 0.017295          65
 rspher_all                              0.015551          10
 densta                                  0.015291          32
 fft_gq                                  0.012765          21
 w1_dscal                                0.012720        1300
 apply_precond                           0.010997        1632
 map_gather                              0.007849         397
 inisym                                  0.004464           1
 pothar                                  0.003840          23
 dfftw_execute                           0.003795         129
 waitred                                 0.003244        1430
 waitgth                                 0.003108        1430
 fordep                                  0.002951           1
 w1_daxpy                                0.002825         446
 wrk_deallocate                          0.001244           1
 forloc                                  0.001021           1
 fewald                                  0.000804           1
 stufak                                  0.000587           1
 strehar                                 0.000387           1
 strelo                                  0.000369           1
 truncate_high_frequency_w1              0.000325        2932
 forhar                                  0.000317           1
 strkin                                  0.000223           1
 rsp                                     0.000173           1
 posmap                                  0.000041           2
 rcp                                     0.000027           1
 crpa_reader                             0.000025           1
 set_dd_magatom                          0.000008           2
 shift_bands_between_low_high            0.000007          65
 vectorpot                               0.000004           1
 potlok_metagga                          0.000000          23
 rotate_active_occupied_orbital          0.000000           1

Profiling took   1.405210  0.917283  0.003784  0.003705 seconds
Profiling took   0.818645 seconds