 vasp.6.3.2 27Jun22 (build Jan 18 2024 14:18:24) complex
 executed on    LinuxNV_CrayMPICH date 2024.05.19  19:45:49

 INCAR:
   SYSTEM = Be4P3Rb
   ENCUT = 400
   PREC = Accurate
   ISTART = 0
   ICHARG = 2
   LCHARG = .FALSE.
   LWAVE = .FALSE.
   LHFCALC = .TRUE.
   HFSCREEN = 0.2
   AEXX = 0.25
   ALGO = All
   GGA = PE
   ISIF = 3
   NSW = 1000
   IBRION = 2
   EDIFFG = -1.0E-2
   EDIFF = 1E-5
   ISMEAR = 0
   SIGMA = 0.01

 POTCAR:    PAW_PBE Rb_sv 06Sep2000
 POTCAR:    PAW_PBE Be_sv 06Sep2000
 POTCAR:    PAW_PBE P 06Sep2000
|           W    W    AA    RRRRR   N    N  II  N    N   GGGG   !!!           |
|           W    W   A  A   R    R  NN   N  II  NN   N  G    G  !!!           |
|           W    W  A    A  R    R  N N  N  II  N N  N  G       !!!           |
|           W WW W  AAAAAA  RRRRR   N  N N  II  N  N N  G  GGG   !            |
|           WW  WW  A    A  R   R   N   NN  II  N   NN  G    G                |
|           W    W  A    A  R    R  N    N  II  N    N   GGGG   !!!           |
|     For optimal performance we recommend to set                             |
|       NCORE = 2 up to number-of-cores-per-socket                            |
|     This setting can greatly improve the performance of VASP for DFT.       |
|     The default, NCORE=1 might be grossly inefficient on modern             |
|     multi-core architectures or massively parallel machines. Do your        |
|     Unfortunately you need to use the default for GW and RPA                |
|     calculations (for HF NCORE is supported but not extensively tested      |
|     yet).                                                                   |

   TITEL  = PAW_PBE Rb_sv 06Sep2000
   POMASS =   85.468; ZVAL   =    9.000    mass and valenz
   ENMAX  =  220.112; ENMIN  =  165.084 eV

   TITEL  = PAW_PBE Be_sv 06Sep2000
   POMASS =    9.013; ZVAL   =    4.000    mass and valenz
   ENMAX  =  308.768; ENMIN  =  231.576 eV

   TITEL  = PAW_PBE P 06Sep2000
   POMASS =   30.974; ZVAL   =    5.000    mass and valenz
   ENMAX  =  255.040; ENMIN  =  191.280 eV

  PAW_PBE Rb_sv 06Sep2000               :
  PAW_PBE Be_sv 06Sep2000               :
  PAW_PBE P 06Sep2000                   :

 POSCAR: Be4P3Rb.cif
  positions in direct lattice
  velocities in cartesian coordinates
 exchange correlation table for  LEXCH =        8
   RHO(1)=    0.500       N(1)  =     2000
   RHO(2)=  100.500       N(2)  =     4000

 ion  position               nearest neighbor table
   1  0.000  0.000  0.500-   7 3.48   8 3.48   7 3.48   8 3.48   7 3.48   8 3.48   7 3.48   8 3.48
                             4 3.94   5 3.94   4 3.94   5 3.94   2 3.94   3 3.94   2 3.94   3 3.94
   2  0.000  0.500  0.143-   7 2.16   7 2.16   6 2.30   6 2.30   1 3.94   1 3.94
   3  0.000  0.500  0.857-   8 2.16   8 2.16   6 2.30   6 2.30   1 3.94   1 3.94
   4  0.500  0.000  0.857-   8 2.16   8 2.16   6 2.30   6 2.30   1 3.94   1 3.94
   5  0.500  0.000  0.143-   7 2.16   7 2.16   6 2.30   6 2.30   1 3.94   1 3.94
   6  0.000  0.000  0.000-   2 2.30   3 2.30   4 2.30   5 2.30   2 2.30   3 2.30   4 2.30   5 2.30

   7  0.500  0.500  0.261-   2 2.16   5 2.16   5 2.16   2 2.16   1 3.48   1 3.48   1 3.48   1 3.48

   8  0.500  0.500  0.739-   3 2.16   4 2.16   4 2.16   3 2.16   1 3.48   1 3.48   1 3.48   1 3.48

  LATTYP: Found a simple tetragonal cell.
 ALAT       =     3.6444689888
 C/A-ratio  =     2.6845662960

  Lattice vectors:

 A1 = (   3.6444689888,   0.0000000000,  -0.0000000000)
 A2 = (   0.0000000000,   3.6444689888,   0.0000000000)
 A3 = (   0.0000000000,   0.0000000000,   9.7838186140)

Analysis of symmetry for initial positions (statically):
 Subroutine PRICEL returns:
 Original cell was already a primitive cell.

 Routine SETGRP: Setting up the symmetry group for a
 simple tetragonal supercell.

 Subroutine GETGRP returns: Found 16 space group operations
 (whereof 16 operations were pure point group operations)
 out of a pool of 16 trial point group operations.

The static configuration has the point symmetry D_4h.

Analysis of symmetry for dynamics (positions and initial velocities):
 Subroutine PRICEL returns:
 Original cell was already a primitive cell.

 Routine SETGRP: Setting up the symmetry group for a
 simple tetragonal supercell.

 Subroutine GETGRP returns: Found 16 space group operations
 (whereof 16 operations were pure point group operations)
 out of a pool of 16 trial point group operations.

The dynamic configuration has the point symmetry D_4h.

 Subroutine INISYM returns: Found 16 space group operations
 (whereof 16 operations are pure point group operations),
 and found     1 'primitive' translations

                                     Primitive cell

  volume of cell :     129.9502

  direct lattice vectors                    reciprocal lattice vectors
     3.644468989  0.000000000 -0.000000000     0.274388396  0.000000000  0.000000000
     0.000000000  3.644468989  0.000000000    -0.000000000  0.274388396  0.000000000
     0.000000000  0.000000000  9.783818614     0.000000000 -0.000000000  0.102209581

  length of vectors
     3.644468989  3.644468989  9.783818614     0.274388396  0.274388396  0.102209581

  position of ions in fractional coordinates (direct lattice)
     0.000000000  0.000000000  0.500000000
     0.000000000  0.500000000  0.142971773
     0.000000000  0.500000000  0.857028227
     0.500000000  0.000000000  0.857028227
     0.500000000  0.000000000  0.142971773
     0.000000000  0.000000000  0.000000000
     0.500000000  0.500000000  0.260602315
     0.500000000  0.500000000  0.739397685

  ion indices of the primitive-cell ions
   primitive index   ion index
                 1           1
                 2           2
                 3           3
                 4           4
                 5           5
                 6           6
                 7           7
                 8           8

 KPOINTS: Auto

Automatic generation of k-mesh.
 Grid dimensions read from file:
 generate k-points for:    7    7    3

 Generating k-lattice:

  Cartesian coordinates                     Fractional coordinates (reciprocal lattice)
     0.039198342  0.000000000  0.000000000     0.142857143  0.000000000  0.000000000
    -0.000000000  0.039198342  0.000000000     0.000000000  0.142857143  0.000000000
     0.000000000 -0.000000000  0.034069860     0.000000000  0.000000000  0.333333333

  Length of vectors
     0.039198342  0.039198342  0.034069860

  Shift w.r.t. Gamma in fractional coordinates (k-lattice)
     0.000000000  0.000000000  0.000000000

 Subroutine IBZKPT returns following result:

 Found     20 irreducible k-points:

 Following reciprocal coordinates:
            Coordinates               Weight
  0.000000  0.000000  0.000000      1.000000
  0.142857  0.000000  0.000000      4.000000
  0.285714  0.000000  0.000000      4.000000
  0.428571  0.000000  0.000000      4.000000
  0.142857  0.142857  0.000000      4.000000
  0.285714  0.142857  0.000000      8.000000
  0.428571  0.142857  0.000000      8.000000
  0.285714  0.285714  0.000000      4.000000
  0.428571  0.285714  0.000000      8.000000
  0.428571  0.428571  0.000000      4.000000
  0.000000  0.000000  0.333333      2.000000
  0.142857  0.000000  0.333333      8.000000
  0.285714  0.000000  0.333333      8.000000
  0.428571  0.000000  0.333333      8.000000
  0.142857  0.142857  0.333333      8.000000
  0.285714  0.142857  0.333333     16.000000
  0.428571  0.142857  0.333333     16.000000
  0.285714  0.285714  0.333333      8.000000
  0.428571  0.285714  0.333333     16.000000
  0.428571  0.428571  0.333333      8.000000

 Following cartesian coordinates:
            Coordinates               Weight
  0.000000  0.000000  0.000000      1.000000
  0.039198  0.000000  0.000000      4.000000
  0.078397  0.000000  0.000000      4.000000
  0.117595  0.000000  0.000000      4.000000
  0.039198  0.039198  0.000000      4.000000
  0.078397  0.039198  0.000000      8.000000
  0.117595  0.039198  0.000000      8.000000
  0.078397  0.078397  0.000000      4.000000
  0.117595  0.078397  0.000000      8.000000
  0.117595  0.117595  0.000000      4.000000
  0.000000  0.000000  0.034070      2.000000
  0.039198  0.000000  0.034070      8.000000
  0.078397  0.000000  0.034070      8.000000
  0.117595  0.000000  0.034070      8.000000
  0.039198  0.039198  0.034070      8.000000
  0.078397  0.039198  0.034070     16.000000
  0.117595  0.039198  0.034070     16.000000
  0.078397  0.078397  0.034070      8.000000
  0.117595  0.078397  0.034070     16.000000
  0.117595  0.117595  0.034070      8.000000

 Subroutine IBZKPT_HF returns following result:

 Found    147 k-points in 1st BZ
 the following    147 k-points will be used (e.g. in the exchange kernel)
 Following reciprocal coordinates:   # in IRBZ
  0.000000  0.000000  0.000000    0.00680272   1 t-inv F
  0.142857  0.000000  0.000000    0.00680272   2 t-inv F
  0.285714  0.000000  0.000000    0.00680272   3 t-inv F
  0.428571  0.000000  0.000000    0.00680272   4 t-inv F
  0.142857  0.142857  0.000000    0.00680272   5 t-inv F
  0.285714  0.142857  0.000000    0.00680272   6 t-inv F
  0.428571  0.142857  0.000000    0.00680272   7 t-inv F
  0.285714  0.285714  0.000000    0.00680272   8 t-inv F
  0.428571  0.285714  0.000000    0.00680272   9 t-inv F
  0.428571  0.428571  0.000000    0.00680272  10 t-inv F
  0.000000  0.000000  0.333333    0.00680272  11 t-inv F
  0.142857  0.000000  0.333333    0.00680272  12 t-inv F
  0.285714  0.000000  0.333333    0.00680272  13 t-inv F
  0.428571  0.000000  0.333333    0.00680272  14 t-inv F
  0.142857  0.142857  0.333333    0.00680272  15 t-inv F
  0.285714  0.142857  0.333333    0.00680272  16 t-inv F
  0.428571  0.142857  0.333333    0.00680272  17 t-inv F
  0.285714  0.285714  0.333333    0.00680272  18 t-inv F
  0.428571  0.285714  0.333333    0.00680272  19 t-inv F
  0.428571  0.428571  0.333333    0.00680272  20 t-inv F
 -0.142857 -0.000000 -0.000000    0.00680272   2 t-inv F
 -0.000000  0.142857  0.000000    0.00680272   2 t-inv F
  0.000000 -0.142857 -0.000000    0.00680272   2 t-inv F
 -0.285714 -0.000000 -0.000000    0.00680272   3 t-inv F
 -0.000000  0.285714  0.000000    0.00680272   3 t-inv F
  0.000000 -0.285714 -0.000000    0.00680272   3 t-inv F
 -0.428571 -0.000000 -0.000000    0.00680272   4 t-inv F
 -0.000000  0.428571  0.000000    0.00680272   4 t-inv F
  0.000000 -0.428571 -0.000000    0.00680272   4 t-inv F
 -0.142857 -0.142857 -0.000000    0.00680272   5 t-inv F
 -0.142857  0.142857  0.000000    0.00680272   5 t-inv F
  0.142857 -0.142857 -0.000000    0.00680272   5 t-inv F
 -0.285714 -0.142857 -0.000000    0.00680272   6 t-inv F
 -0.142857  0.285714  0.000000    0.00680272   6 t-inv F
  0.142857 -0.285714 -0.000000    0.00680272   6 t-inv F
 -0.285714  0.142857 -0.000000    0.00680272   6 t-inv F
  0.285714 -0.142857  0.000000    0.00680272   6 t-inv F
  0.142857  0.285714 -0.000000    0.00680272   6 t-inv F
 -0.142857 -0.285714  0.000000    0.00680272   6 t-inv F
 -0.428571 -0.142857 -0.000000    0.00680272   7 t-inv F
 -0.142857  0.428571  0.000000    0.00680272   7 t-inv F
  0.142857 -0.428571 -0.000000    0.00680272   7 t-inv F
[...]

 Flat profile

 fock_fwd                               63.802748         560
 phaser_hf                              14.733593       85260
 fock_bck                                7.941844         560
 total_time                              7.043237           1
 redis_pw                                5.453548        6063
 acc_cufft_makeplan                      4.438076          55
 m_sumb_d                                4.286344        4768
 dllmm_trans_eccp_nl_fock_acc            4.236014       26460
 init_acc                                3.925069           1
 edwav                                   2.902828          26
 rpromu_hf_acc                           1.630126      111720
 redis_proj                              1.512939       10084
 eddav                                   1.502174           5
 m_alltoall_d                            1.412117       23807
 lapack                                  1.346200         721
 lincom                                  1.341960        1720
 fock_set_gfac_vkpt                      1.215795       82320
 batched_fft                             1.102706      170520
 depsum_sym                              1.080046          27
 m_alltoallv_z                           1.072375         499
 fock_all_dblbuf                         0.971143          28
 racc0mu_hf_acc                          0.955234       85260
 soft_charge_sym                         0.952124          27
 spher                                   0.754476         280
 fft3d                                   0.709213       95091
 ggaall_grid                             0.592122          30
 apply_gfac_exchange_mu_acc              0.549848       82320
 fock_force                              0.529236           1
 m_bcast_d                               0.502614        1475
 fftwav                                  0.426491       15601
 map_scatter                             0.404846         499
 fock_set_fsg_der                        0.390085           1
 pw_charge_trace_mu_acc                  0.367107       85260
 vhamil_trace_mu_acc                     0.365651       82320
 eccp                                    0.324857        2280
 vnlac0_acc                              0.314888        2361
 depsum_two_bands_rholm_trace_m          0.297900       41160
 fft_and_gather                          0.279684         580
 depsum_two_bands_rholm_trace_m          0.276206       38220
 orth1                                   0.257137        3843
 fock_set_fsg                            0.204765           1
 choleski                                0.200360         560
 calc_dllmm_trans_and_overl_foc          0.195382       41160
 calc_dllmm_trans_and_overl_foc          0.188456       38220
 acc_init_cublas                         0.147800           1
 orthch                                  0.139403          27
 fock_set_gfac_der                       0.129146        2940
 eddiag                                  0.124596          14
 contraction                             0.107707       26460
 reduce                                  0.098598         560
 pw_charge                               0.098212        3969
 w1_copy                                 0.096196       16563
 wrk_allocate                            0.087696           1
 fock_charge_mu                          0.087139       85260
 strenl                                  0.079941           1
 m_bcast_z                               0.071440        1681
 proj1_acc                               0.067758        1160
 overl                                   0.067314        2842
 phase                                   0.063147        1201
 acc_init_cusolver                       0.043861           1
 proall                                  0.042239           1
 fft3d_mpi                               0.040048       79933
 elmin_all                               0.038838           1
 potlok                                  0.033299          29
 overl1                                  0.032425        1841
 m_ibcast_z_from                         0.027657       58160
 hamiltmu                                0.026991         721
 m_ireduce_z_to                          0.022224       53760
 depsum_two_bands_rholm_trace_m          0.021646        2940
 depsum_two_bands_rholm_trace_m          0.021262        2940
 fftext_mpi                              0.020305        2401
 fftwav_mpi                              0.018531       15601
 fftbas_plan_mpi                         0.017180         443
 fornl                                   0.016016           1
 w1_dot                                  0.014787         560
 projlat_der                             0.014496          20
 calc_dllmm_trans_and_overl_foc          0.014185        2940
 apply_gfac_der_mu                       0.012661        2940
 projmu_acc                              0.011781         521
 vhamil                                  0.011411        1281
 fock_ace_acc_apply                      0.011117         160
 kinhamil                                0.010877        1281
 ggemm                                   0.010692         921
 apply_gfac_weight_mu                    0.010381        2940
 setdij_                                 0.010061          56
 hamilt_local                            0.008316         560
 map_gather                              0.008273         499
 setup_precond                           0.006953         200
 rspher_all                              0.006375          10
 augmentation_charge                     0.006165          27
 proj                                    0.005929          20
 w1_dscal                                0.005490         520
 newband                                 0.005011         821
 fock_ace_construct                      0.004893           1
 force_and_stress                        0.004751           1
 projxyz                                 0.004603          20
 inisym                                  0.004193           1
 apply_precond                           0.003590         521
 dfftw_execute                           0.002713         165
 map_forward                             0.002387         418
 map_backward                            0.002288         468
 pothar                                  0.001969          29
 densta                                  0.001448          38
 waitgth                                 0.001320         560
 waitred                                 0.001279         560
 wrk_deallocate                          0.001162           1
 forloc                                  0.001096           1
 w1_daxpy                                0.001000         160
 set_charge                              0.000809          27
 set_dd_paw                              0.000744          30
 redis_pw_all                            0.000567          26
 w1_projall                              0.000565         521
 fewald                                  0.000353           1
 strelo                                  0.000284           1
 fftbrc_mpi                              0.000268         443
 stufak                                  0.000259           1
 strehar                                 0.000256           1
 fft_gq                                  0.000184          27
 forhar                                  0.000152           1
 strkin                                  0.000149           1
 brgrid                                  0.000119           1
 rsp                                     0.000112           1
 truncate_high_frequency_w1              0.000094         921
 crpa_reader                             0.000026           1
 posmap                                  0.000021           2
 redis_pw_over_bands                     0.000016          27
 rcp                                     0.000016           1
 fordep                                  0.000013           1
 acc_cufft_makeplans                     0.000013           5
 set_dd_magatom                          0.000007           2
 potlok_metagga                          0.000005          29
 vectorpot                               0.000004           1
 shift_bands_between_low_high            0.000003          20
 rotate_active_occupied_orbital          0.000000           1
  summed up times     145.1068720817566

 Accumulative profile

 total_time                            145.106872           1
 elmin_all                             123.369229           1
 fock_all_dblbuf                        98.496429          28
 fock_fwd                               85.645092         560
 edwav                                  57.573552          26
 eddiag                                 50.176822          14
 fock_set_gfac_vkpt                     15.458712       82320
 phaser_hf                              14.733593       85260
 fock_bck                                7.990288         560
 force_and_stress                        7.748769           1
 fock_force                              7.255176           1
 eddav                                   6.290108           5
 redis_pw                                5.607488        6063
 acc_cufft_makeplan                      4.438076          55
 m_sumb_d                                4.286344        4768
 dllmm_trans_eccp_nl_fock_acc            4.236014       26460
 init_acc                                3.925069           1
 orthch                                  3.535958          27
 redis_proj                              2.771116       10084
 set_charge                              2.252555          27
 fft3d_mpi                               2.141374       79933
 potlok                                  2.110877          29
 fock_charge_mu                          2.026495       85260
 rpromu_hf_acc                           1.630126      111720
 set_dd_paw                              1.575658          30
 fftbrc_mpi                              1.510330         443
 fftbas_plan_mpi                         1.510062         443
 m_alltoall_d                            1.412117       23807
 lapack                                  1.346200         721
 lincom                                  1.341960        1720
 map_forward                             1.289727         418
 soft_charge_sym                         1.141660          27
 batched_fft                             1.102706      170520
 depsum_sym                              1.093184          27
 m_alltoallv_z                           1.072375         499
 racc0mu_hf_acc                          0.955234       85260
 acc_cufft_makeplans                     0.789270           5
 spher                                   0.754476         280
 fft3d                                   0.709213       95091
 fock_set_gfac_der                       0.619822        2940
 redis_pw_over_bands                     0.593169          27
 redis_pw_all                            0.593152          26
 ggaall_grid                             0.592122          30
 fftwav_mpi                              0.563239       15601
 apply_gfac_exchange_mu_acc              0.549848       82320
 fftwav                                  0.544708       15601
 m_bcast_d                               0.502614        1475
 projlat_der                             0.487832          20
 wrk_allocate                            0.483254           1
 map_scatter                             0.404846         499
 fock_set_fsg_der                        0.390085           1
 strenl                                  0.383528           1
 pw_charge_trace_mu_acc                  0.367107       85260
 vhamil_trace_mu_acc                     0.365651       82320
 fft_and_gather                          0.332930         580
 eccp                                    0.324857        2280
 vnlac0_acc                              0.314888        2361
 depsum_two_bands_rholm_trace_m          0.297900       41160
 newband                                 0.279884         821
 depsum_two_bands_rholm_trace_m          0.276206       38220
 orth1                                   0.257137        3843
 fock_ace_acc_apply                      0.231048         160
 fock_set_fsg                            0.204765           1
 map_backward                            0.200442         468
 choleski                                0.200360         560
 calc_dllmm_trans_and_overl_foc          0.195382       41160
 calc_dllmm_trans_and_overl_foc          0.188456       38220
 acc_init_cublas                         0.147800           1
 reduce                                  0.120822         560
 contraction                             0.107707       26460
 pw_charge                               0.098212        3969
 w1_copy                                 0.096196       16563
 fock_ace_construct                      0.085722           1
 m_bcast_z                               0.071440        1681
 proj1_acc                               0.067758        1160
 overl                                   0.067314        2842
 phase                                   0.063147        1201
 hamiltmu                                0.063094         721
 proall                                  0.050171           1
 acc_init_cusolver                       0.043861           1
 hamilt_local                            0.039906         560
 fftext_mpi                              0.039629        2401
 kinhamil                                0.036248        1281
 overl1                                  0.032425        1841
 m_ibcast_z_from                         0.027657       58160
 setdij_                                 0.023108          56
 m_ireduce_z_to                          0.022224       53760
 depsum_two_bands_rholm_trace_m          0.021646        2940
 depsum_two_bands_rholm_trace_m          0.021262        2940
 fornl                                   0.017332           1
 augmentation_charge                     0.016902          27
 densta                                  0.015215          38
 w1_dot                                  0.014965         560
 calc_dllmm_trans_and_overl_foc          0.014185        2940
 apply_gfac_der_mu                       0.012661        2940
 w1_projall                              0.012346         521
 fft_gq                                  0.011939          27
 projmu_acc                              0.011781         521
 vhamil                                  0.011411        1281
 ggemm                                   0.010692         921
 apply_gfac_weight_mu                    0.010381        2940
 map_gather                              0.008273         499
 setup_precond                           0.006953         200
 proj                                    0.006783          20
 rspher_all                              0.006375          10
 w1_dscal                                0.005490         520
 pothar                                  0.005323          29
 projxyz                                 0.004639          20
 inisym                                  0.004214           1
 apply_precond                           0.003590         521
 dfftw_execute                           0.002713         165
 fordep                                  0.001516           1
 waitgth                                 0.001320         560
 waitred                                 0.001279         560
 wrk_deallocate                          0.001162           1
 forloc                                  0.001128           1
 w1_daxpy                                0.001000         160
 fewald                                  0.000706           1
 strelo                                  0.000331           1
 strehar                                 0.000275           1
 stufak                                  0.000259           1
 forhar                                  0.000223           1
 strkin                                  0.000210           1
 brgrid                                  0.000119           1
 rsp                                     0.000112           1
 truncate_high_frequency_w1              0.000094         921
 crpa_reader                             0.000026           1
 posmap                                  0.000021           2
 rcp                                     0.000016           1
 set_dd_magatom                          0.000007           2
 potlok_metagga                          0.000005          29
 vectorpot                               0.000004           1
 shift_bands_between_low_high            0.000003          20
 rotate_active_occupied_orbital          0.000000           1

Profiling took   0.172097  0.121688  0.003811  0.003720 seconds
Profiling took   0.101481 seconds