 vasp.6.3.2 27Jun22 (build Jan 18 2024 14:18:24) complex
 executed on    LinuxNV_CrayMPICH date 2024.05.20  12:05:12

 INCAR:
   SYSTEM = Be4P3Rb
   ENCUT = 400
   PREC = Accurate
   ISTART = 0
   ICHARG = 2
   LCHARG = .FALSE.
   LWAVE = .FALSE.
   LHFCALC = .TRUE.
   HFSCREEN = 0.2
   AEXX = 0.25
   ALGO = All
   GGA = PE
   EDIFF = 1E-5
   ISMEAR = 0
   SIGMA = 0.01

 POTCAR:    PAW_PBE Rb_sv 06Sep2000
 POTCAR:    PAW_PBE Be_sv 06Sep2000
 POTCAR:    PAW_PBE P 06Sep2000
|           W    W    AA    RRRRR   N    N  II  N    N   GGGG   !!!           |
|           W    W   A  A   R    R  NN   N  II  NN   N  G    G  !!!           |
|           W    W  A    A  R    R  N N  N  II  N N  N  G       !!!           |
|           W WW W  AAAAAA  RRRRR   N  N N  II  N  N N  G  GGG   !            |
|           WW  WW  A    A  R   R   N   NN  II  N   NN  G    G                |
|           W    W  A    A  R    R  N    N  II  N    N   GGGG   !!!           |
|     For optimal performance we recommend to set                             |
|       NCORE = 2 up to number-of-cores-per-socket                            |
|     This setting can greatly improve the performance of VASP for DFT.       |
|     The default, NCORE=1 might be grossly inefficient on modern             |
|     multi-core architectures or massively parallel machines. Do your        |
|     Unfortunately you need to use the default for GW and RPA                |
|     calculations (for HF NCORE is supported but not extensively tested      |
|     yet).                                                                   |

   TITEL  = PAW_PBE Rb_sv 06Sep2000
   POMASS =   85.468; ZVAL   =    9.000    mass and valenz
   ENMAX  =  220.112; ENMIN  =  165.084 eV

   TITEL  = PAW_PBE Be_sv 06Sep2000
   POMASS =    9.013; ZVAL   =    4.000    mass and valenz
   ENMAX  =  308.768; ENMIN  =  231.576 eV

   TITEL  = PAW_PBE P 06Sep2000
   POMASS =   30.974; ZVAL   =    5.000    mass and valenz
   ENMAX  =  255.040; ENMIN  =  191.280 eV

  PAW_PBE Rb_sv 06Sep2000               :
  PAW_PBE Be_sv 06Sep2000               :
  PAW_PBE P 06Sep2000                   :

 POSCAR: Be4P3Rb.cif
  positions in direct lattice
  velocities in cartesian coordinates
 exchange correlation table for  LEXCH =        8
   RHO(1)=    0.500       N(1)  =     2000
   RHO(2)=  100.500       N(2)  =     4000

 ion  position               nearest neighbor table
   1  0.000  0.000  0.500-   7 3.48   8 3.48   7 3.48   8 3.48   7 3.48   8 3.48   7 3.48   8 3.48
                             4 3.94   5 3.94   4 3.94   5 3.94   2 3.94   3 3.94   2 3.94   3 3.94
   2  0.000  0.500  0.143-   7 2.16   7 2.16   6 2.30   6 2.30   1 3.94   1 3.94
   3  0.000  0.500  0.857-   8 2.16   8 2.16   6 2.30   6 2.30   1 3.94   1 3.94
   4  0.500  0.000  0.857-   8 2.16   8 2.16   6 2.30   6 2.30   1 3.94   1 3.94
   5  0.500  0.000  0.143-   7 2.16   7 2.16   6 2.30   6 2.30   1 3.94   1 3.94
   6  0.000  0.000  0.000-   2 2.30   3 2.30   4 2.30   5 2.30   2 2.30   3 2.30   4 2.30   5 2.30

   7  0.500  0.500  0.261-   2 2.16   5 2.16   5 2.16   2 2.16   1 3.48   1 3.48   1 3.48   1 3.48

   8  0.500  0.500  0.739-   3 2.16   4 2.16   4 2.16   3 2.16   1 3.48   1 3.48   1 3.48   1 3.48

  LATTYP: Found a simple tetragonal cell.
 ALAT       =     3.6444689888
 C/A-ratio  =     2.6845662960

  Lattice vectors:

 A1 = (   3.6444689888,   0.0000000000,  -0.0000000000)
 A2 = (   0.0000000000,   3.6444689888,   0.0000000000)
 A3 = (   0.0000000000,   0.0000000000,   9.7838186140)

Analysis of symmetry for initial positions (statically):
 Subroutine PRICEL returns:
 Original cell was already a primitive cell.

 Routine SETGRP: Setting up the symmetry group for a
 simple tetragonal supercell.

 Subroutine GETGRP returns: Found 16 space group operations
 (whereof 16 operations were pure point group operations)
 out of a pool of 16 trial point group operations.

The static configuration has the point symmetry D_4h.

Analysis of symmetry for dynamics (positions and initial velocities):
 Subroutine PRICEL returns:
 Original cell was already a primitive cell.

 Routine SETGRP: Setting up the symmetry group for a
 simple tetragonal supercell.

 Subroutine GETGRP returns: Found 16 space group operations
 (whereof 16 operations were pure point group operations)
 out of a pool of 16 trial point group operations.

The dynamic configuration has the point symmetry D_4h.

 Subroutine INISYM returns: Found 16 space group operations
 (whereof 16 operations are pure point group operations),
 and found     1 'primitive' translations

                                     Primitive cell

  volume of cell :     129.9502

  direct lattice vectors                    reciprocal lattice vectors
     3.644468989  0.000000000 -0.000000000     0.274388396  0.000000000  0.000000000
     0.000000000  3.644468989  0.000000000    -0.000000000  0.274388396  0.000000000
     0.000000000  0.000000000  9.783818614     0.000000000 -0.000000000  0.102209581

  length of vectors
     3.644468989  3.644468989  9.783818614     0.274388396  0.274388396  0.102209581

  position of ions in fractional coordinates (direct lattice)
     0.000000000  0.000000000  0.500000000
     0.000000000  0.500000000  0.142971773
     0.000000000  0.500000000  0.857028227
     0.500000000  0.000000000  0.857028227
     0.500000000  0.000000000  0.142971773
     0.000000000  0.000000000  0.000000000
     0.500000000  0.500000000  0.260602315
     0.500000000  0.500000000  0.739397685

  ion indices of the primitive-cell ions
   primitive index   ion index
                 1           1
                 2           2
                 3           3
                 4           4
                 5           5
                 6           6
                 7           7
                 8           8

 KPOINTS: Auto

Automatic generation of k-mesh.
 Grid dimensions read from file:
 generate k-points for:    7    7    3

 Generating k-lattice:

  Cartesian coordinates                     Fractional coordinates (reciprocal lattice)
     0.039198342  0.000000000  0.000000000     0.142857143  0.000000000  0.000000000
    -0.000000000  0.039198342  0.000000000     0.000000000  0.142857143  0.000000000
     0.000000000 -0.000000000  0.034069860     0.000000000  0.000000000  0.333333333

  Length of vectors
     0.039198342  0.039198342  0.034069860

  Shift w.r.t. Gamma in fractional coordinates (k-lattice)
     0.000000000  0.000000000  0.000000000

 Subroutine IBZKPT returns following result:

 Found     20 irreducible k-points:

 Following reciprocal coordinates:
            Coordinates               Weight
  0.000000  0.000000  0.000000      1.000000
  0.142857  0.000000  0.000000      4.000000
  0.285714  0.000000  0.000000      4.000000
  0.428571  0.000000  0.000000      4.000000
  0.142857  0.142857  0.000000      4.000000
  0.285714  0.142857  0.000000      8.000000
  0.428571  0.142857  0.000000      8.000000
  0.285714  0.285714  0.000000      4.000000
  0.428571  0.285714  0.000000      8.000000
  0.428571  0.428571  0.000000      4.000000
  0.000000  0.000000  0.333333      2.000000
  0.142857  0.000000  0.333333      8.000000
  0.285714  0.000000  0.333333      8.000000
  0.428571  0.000000  0.333333      8.000000
  0.142857  0.142857  0.333333      8.000000
  0.285714  0.142857  0.333333     16.000000
  0.428571  0.142857  0.333333     16.000000
  0.285714  0.285714  0.333333      8.000000
  0.428571  0.285714  0.333333     16.000000
  0.428571  0.428571  0.333333      8.000000

 Following cartesian coordinates:
            Coordinates               Weight
  0.000000  0.000000  0.000000      1.000000
  0.039198  0.000000  0.000000      4.000000
  0.078397  0.000000  0.000000      4.000000
  0.117595  0.000000  0.000000      4.000000
  0.039198  0.039198  0.000000      4.000000
  0.078397  0.039198  0.000000      8.000000
  0.117595  0.039198  0.000000      8.000000
  0.078397  0.078397  0.000000      4.000000
  0.117595  0.078397  0.000000      8.000000
  0.117595  0.117595  0.000000      4.000000
  0.000000  0.000000  0.034070      2.000000
  0.039198  0.000000  0.034070      8.000000
  0.078397  0.000000  0.034070      8.000000
  0.117595  0.000000  0.034070      8.000000
  0.039198  0.039198  0.034070      8.000000
  0.078397  0.039198  0.034070     16.000000
  0.117595  0.039198  0.034070     16.000000
  0.078397  0.078397  0.034070      8.000000
  0.117595  0.078397  0.034070     16.000000
  0.117595  0.117595  0.034070      8.000000

 Subroutine IBZKPT_HF returns following result:

 Found    147 k-points in 1st BZ
 the following    147 k-points will be used (e.g. in the exchange kernel)
 Following reciprocal coordinates:   # in IRBZ
  0.000000  0.000000  0.000000    0.00680272   1 t-inv F
  0.142857  0.000000  0.000000    0.00680272   2 t-inv F
  0.285714  0.000000  0.000000    0.00680272   3 t-inv F
  0.428571  0.000000  0.000000    0.00680272   4 t-inv F
  0.142857  0.142857  0.000000    0.00680272   5 t-inv F
  0.285714  0.142857  0.000000    0.00680272   6 t-inv F
  0.428571  0.142857  0.000000    0.00680272   7 t-inv F
  0.285714  0.285714  0.000000    0.00680272   8 t-inv F
  0.428571  0.285714  0.000000    0.00680272   9 t-inv F
  0.428571  0.428571  0.000000    0.00680272  10 t-inv F
  0.000000  0.000000  0.333333    0.00680272  11 t-inv F
  0.142857  0.000000  0.333333    0.00680272  12 t-inv F
  0.285714  0.000000  0.333333    0.00680272  13 t-inv F
  0.428571  0.000000  0.333333    0.00680272  14 t-inv F
  0.142857  0.142857  0.333333    0.00680272  15 t-inv F
  0.285714  0.142857  0.333333    0.00680272  16 t-inv F
  0.428571  0.142857  0.333333    0.00680272  17 t-inv F
  0.285714  0.285714  0.333333    0.00680272  18 t-inv F
  0.428571  0.285714  0.333333    0.00680272  19 t-inv F
  0.428571  0.428571  0.333333    0.00680272  20 t-inv F
 -0.142857 -0.000000 -0.000000    0.00680272   2 t-inv F
 -0.000000  0.142857  0.000000    0.00680272   2 t-inv F
  0.000000 -0.142857 -0.000000    0.00680272   2 t-inv F
 -0.285714 -0.000000 -0.000000    0.00680272   3 t-inv F
 -0.000000  0.285714  0.000000    0.00680272   3 t-inv F
  0.000000 -0.285714 -0.000000    0.00680272   3 t-inv F
 -0.428571 -0.000000 -0.000000    0.00680272   4 t-inv F
 -0.000000  0.428571  0.000000    0.00680272   4 t-inv F
  0.000000 -0.428571 -0.000000    0.00680272   4 t-inv F
 -0.142857 -0.142857 -0.000000    0.00680272   5 t-inv F
 -0.142857  0.142857  0.000000    0.00680272   5 t-inv F
  0.142857 -0.142857 -0.000000    0.00680272   5 t-inv F
 -0.285714 -0.142857 -0.000000    0.00680272   6 t-inv F
 -0.142857  0.285714  0.000000    0.00680272   6 t-inv F
  0.142857 -0.285714 -0.000000    0.00680272   6 t-inv F
 -0.285714  0.142857 -0.000000    0.00680272   6 t-inv F
  0.285714 -0.142857  0.000000    0.00680272   6 t-inv F
  0.142857  0.285714 -0.000000    0.00680272   6 t-inv F
 -0.142857 -0.285714  0.000000    0.00680272   6 t-inv F
 -0.428571 -0.142857 -0.000000    0.00680272   7 t-inv F
 -0.142857  0.428571  0.000000    0.00680272   7 t-inv F
  0.142857 -0.428571 -0.000000    0.00680272   7 t-inv F
 -0.428571  0.142857 -0.000000    0.00680272   7 t-inv F
[...]
  408        ggaall_grid                           0.019250                            1   3
  409        m_sumb_d                              0.000449                            5   3
  410        pothar                                0.000360                            1   3
  411          m_sumb_d                              0.000292                          1   4
  412        m_bcast_d                             0.000011                            1   3
  413      potlok_metagga                        0.000000                              1   2
  414      set_dd_magatom                        0.000003                              1   2
  415      set_dd_paw                            0.054125                              1   2
  416        m_sumb_d                              0.054110                            7   3
  417      m_bcast_d                             0.000101                              2   2

 Flat profile

 fock_fwd                               63.321343         560
 phaser_hf                              14.789296       85260
 total_time                              7.976924           1
 fock_bck                                7.677114         560
 redis_pw                                5.656304        6063
 acc_cufft_makeplan                      4.260971          55
 m_sumb_d                                4.242513        4744
 init_acc                                4.164271           1
 edwav                                   2.940315          26
 dllmm_trans_eccp_nl_fock_acc            1.730927        8820
 eddav                                   1.510588           5
 redis_proj                              1.479665       10084
 rpromu_hf_acc                           1.434510       94080
 m_alltoall_d                            1.433336       23807
 lincom                                  1.335690        1720
 fock_set_gfac_vkpt                      1.259721       85260
 lapack                                  1.259090         721
 batched_fft                             1.101947      170520
 depsum_sym                              1.082802          27
 m_alltoallv_z                           1.075563         499
 fock_all_dblbuf                         0.977835          28
 racc0mu_hf_acc                          0.974218       85260
 soft_charge_sym                         0.957708          27
 fft3d                                   0.715518       95091
 ggaall_grid                             0.589377          30
 apply_gfac_exchange_mu_acc              0.547618       82320
 fock_force                              0.499797           1
 m_bcast_d                               0.487454        1475
 fftwav                                  0.427095       15601
 fock_set_fsg                            0.410795           2
 pw_charge_trace_mu_acc                  0.379700       85260
 vhamil_trace_mu_acc                     0.375402       82320
 map_scatter                             0.355783         499
 fft_and_gather                          0.354817         580
 eccp                                    0.327215        2280
 vnlac0_acc                              0.318323        2361
 brgrid                                  0.310066           1
 depsum_two_bands_rholm_trace_m          0.299143       41160
 depsum_two_bands_rholm_trace_m          0.275436       38220
 calc_dllmm_trans_and_overl_foc          0.195962       41160
 calc_dllmm_trans_and_overl_foc          0.181685       38220
 orthch                                  0.142749          27
 eddiag                                  0.125667          14
 pw_charge                               0.099669        3969
 reduce                                  0.097394         560
 fock_charge_mu                          0.096928       85260
 choleski                                0.096814         560
 w1_copy                                 0.094671       16563
 orth1                                   0.081034        3843
 m_bcast_z                               0.070928        1681
 overl                                   0.070188        2842
 phase                                   0.054596        1001
 wrk_allocate                            0.052542           1
 proall                                  0.042439           1
 fft3d_mpi                               0.041135       79933
 proj1_acc                               0.040545         560
 contraction                             0.038290        8820
 elmin_all                               0.036889           1
 potlok                                  0.033994          29
 overl1                                  0.033880        1841
 acc_init_cublas                         0.031834           1
 hamiltmu                                0.027721         721
 m_ibcast_z_from                         0.026830       55760
 m_ireduce_z_to                          0.022817       53760
 depsum_two_bands_rholm_trace_m          0.021447        2940
 depsum_two_bands_rholm_trace_m          0.021192        2940
 fftext_mpi                              0.020949        2401
 acc_init_cusolver                       0.019681           1
 fftbas_plan_mpi                         0.017822         443
 fftwav_mpi                              0.017790       15601
 spher                                   0.016837           1
 fornl                                   0.016117           1
 w1_dot                                  0.014972         560
 calc_dllmm_trans_and_overl_foc          0.014521        2940
 vhamil                                  0.012190        1281
 projmu_acc                              0.012140         521
 apply_gfac_weight_mu                    0.012136        2940
 ggemm                                   0.011730         921
 fock_ace_acc_apply                      0.011443         160
 kinhamil                                0.011171        1281
 hamilt_local                            0.008523         560
 map_gather                              0.008371         499
 setdij_                                 0.007438          37
 setup_precond                           0.007239         200
 augmentation_charge                     0.006311          27
 proj                                    0.006150          20
 w1_dscal                                0.005438         520
 newband                                 0.005310         821
 fock_ace_construct                      0.005105           1
 force_and_stress                        0.004665           1
 projxyz                                 0.004525          20
 inisym                                  0.004374           1
 apply_precond                           0.003771         521
 rspher_all                              0.002856           4
 dfftw_execute                           0.002797         165
 map_forward                             0.002415         418
 map_backward                            0.002376         468
 pothar                                  0.001997          29
 densta                                  0.001494          38
 waitred                                 0.001174         560
 waitgth                                 0.001168         560
 forloc                                  0.001098           1
 w1_daxpy                                0.001082         160
 wrk_deallocate                          0.000847           1
 set_charge                              0.000831          27
 set_dd_paw                              0.000785          30
 redis_pw_all                            0.000663          26
 w1_projall                              0.000580         521
 fewald                                  0.000349           1
 fftbrc_mpi                              0.000286         443
 stufak                                  0.000236           1
 fft_gq                                  0.000167          27
 forhar                                  0.000152           1
 rsp                                     0.000111           1
 truncate_high_frequency_w1              0.000096         921
 posmap                                  0.000028           2
 crpa_reader                             0.000025           1
 acc_cufft_makeplans                     0.000020           5
 rcp                                     0.000017           1
 redis_pw_over_bands                     0.000012          27
 fordep                                  0.000007           1
 set_dd_magatom                          0.000007           2
 shift_bands_between_low_high            0.000005          20
 vectorpot                               0.000004           1
 potlok_metagga                          0.000002          29
 rotate_active_occupied_orbital          0.000001           1
  summed up times     141.5064377784729

 Accumulative profile

 total_time                            141.506438           1
 elmin_all                             121.808034           1
 fock_all_dblbuf                        96.907098          28
 fock_fwd                               85.286864         560
 edwav                                  57.860593          26
 eddiag                                 48.021257          14
 fock_set_gfac_vkpt                     16.049017       85260
 phaser_hf                              14.789296       85260
 fock_bck                                7.727412         560
 eddav                                   6.308231           5
 redis_pw                                5.813914        6063
 acc_cufft_makeplan                      4.260971          55
 m_sumb_d                                4.242513        4744
 init_acc                                4.164271           1
 force_and_stress                        3.805695           1
 fock_force                              3.698902           1
 orthch                                  3.307744          27
 redis_proj                              2.755390       10084
 set_charge                              2.262774          27
 fft3d_mpi                               2.101271       79933
 fock_charge_mu                          2.068064       85260
 potlok                                  2.065960          29
 dllmm_trans_eccp_nl_fock_acc            1.730927        8820
 acc_cufft_makeplans                     1.587273           5
 set_dd_paw                              1.569115          30
 fftbrc_mpi                              1.465413         443
 fftbas_plan_mpi                         1.465127         443
 rpromu_hf_acc                           1.434510       94080
 m_alltoall_d                            1.433336       23807
 lincom                                  1.335690        1720
 lapack                                  1.259090         721
 map_forward                             1.241930         418
 soft_charge_sym                         1.147474          27
 batched_fft                             1.101947      170520
 depsum_sym                              1.099369          27
 m_alltoallv_z                           1.075563         499
 racc0mu_hf_acc                          0.974218       85260
 fft3d                                   0.715518       95091
 redis_pw_over_bands                     0.594256          27
 redis_pw_all                            0.594243          26
 ggaall_grid                             0.589377          30
 fftwav_mpi                              0.565680       15601
 fftwav                                  0.547889       15601
 apply_gfac_exchange_mu_acc              0.547618       82320
 m_bcast_d                               0.487454        1475
 fock_set_fsg                            0.410795           2
 fft_and_gather                          0.407632         580
 pw_charge_trace_mu_acc                  0.379700       85260
 vhamil_trace_mu_acc                     0.375402       82320
 map_scatter                             0.355783         499
 eccp                                    0.327215        2280
 vnlac0_acc                              0.318323        2361
 brgrid                                  0.310066           1
 depsum_two_bands_rholm_trace_m          0.299143       41160
 newband                                 0.276999         821
 depsum_two_bands_rholm_trace_m          0.275436       38220
 wrk_allocate                            0.261920           1
 fock_ace_acc_apply                      0.224526         160
 map_backward                            0.202578         468
 calc_dllmm_trans_and_overl_foc          0.195962       41160
 calc_dllmm_trans_and_overl_foc          0.181685       38220
 reduce                                  0.120210         560
 pw_charge                               0.099669        3969
 choleski                                0.096814         560
 w1_copy                                 0.094671       16563
 fock_ace_construct                      0.083885           1
 orth1                                   0.081034        3843
 m_bcast_z                               0.070928        1681
 overl                                   0.070188        2842
 hamiltmu                                0.065910         721
 phase                                   0.054596        1001
 proall                                  0.050868           1
 fftext_mpi                              0.041161        2401
 hamilt_local                            0.040916         560
 proj1_acc                               0.040545         560
 contraction                             0.038290        8820
 kinhamil                                0.037585        1281
 overl1                                  0.033880        1841
 acc_init_cublas                         0.031834           1
 m_ibcast_z_from                         0.026830       55760
 m_ireduce_z_to                          0.022817       53760
 depsum_two_bands_rholm_trace_m          0.021447        2940
 depsum_two_bands_rholm_trace_m          0.021192        2940
 acc_init_cusolver                       0.019681           1
 setdij_                                 0.018266          37
 fornl                                   0.017297           1
 spher                                   0.016837           1
 densta                                  0.015926          38
 w1_dot                                  0.015218         560
 augmentation_charge                     0.015101          27
 calc_dllmm_trans_and_overl_foc          0.014521        2940
 w1_projall                              0.012720         521
 vhamil                                  0.012190        1281
 projmu_acc                              0.012140         521
 apply_gfac_weight_mu                    0.012136        2940
 ggemm                                   0.011730         921
 fft_gq                                  0.011266          27
 map_gather                              0.008371         499
 setup_precond                           0.007239         200
 proj                                    0.007124          20
 pothar                                  0.005629          29
 w1_dscal                                0.005438         520
 projxyz                                 0.004565          20
 inisym                                  0.004402           1
 apply_precond                           0.003771         521
 rspher_all                              0.002856           4
 dfftw_execute                           0.002797         165
 fordep                                  0.001455           1
 waitred                                 0.001174         560
 waitgth                                 0.001168         560
 forloc                                  0.001127           1
 w1_daxpy                                0.001082         160
 wrk_deallocate                          0.000847           1
 fewald                                  0.000733           1
 forhar                                  0.000701           1
 stufak                                  0.000236           1
 rsp                                     0.000111           1
 truncate_high_frequency_w1              0.000096         921
 posmap                                  0.000028           2
 crpa_reader                             0.000025           1
 rcp                                     0.000017           1
 set_dd_magatom                          0.000007           2
 shift_bands_between_low_high            0.000005          20
 vectorpot                               0.000004           1
 potlok_metagga                          0.000002          29
 rotate_active_occupied_orbital          0.000001           1

Profiling took   0.169165  0.118722  0.003877  0.003787 seconds
Profiling took   0.101114 seconds