 vasp.6.3.2 27Jun22 (build Jan 18 2024 14:18:24) complex
 executed on    LinuxNV_CrayMPICH date 2024.05.26  19:48:27

 INCAR:
   SYSTEM = Be4P3Rb
   ENCUT = 400
   PREC = Accurate
   ISTART = 1
   ICHARG = 0
   LCHARG = .TRUE.
   LWAVE = .TRUE.
   NEDOS = 10001
   LHFCALC = .TRUE.
   HFSCREEN = 0.2
   AEXX = 0.25
   ALGO = Normal
   GGA = PE
   ISIF = 3
   NSW = 0
   IBRION = 2
   EDIFFG = -1.0E-2
   NELM = 90
   EDIFF = 1E-5
   ISMEAR = 0
   SIGMA = 0.01
   LREAL = .FALSE.

 POTCAR:    PAW_PBE Be 06Sep2000
 POTCAR:    PAW_PBE B 06Sep2000
 POTCAR:    PAW_PBE N 08Apr2002
|           W    W    AA    RRRRR   N    N  II  N    N   GGGG   !!!           |
|           W    W   A  A   R    R  NN   N  II  NN   N  G    G  !!!           |
|           W    W  A    A  R    R  N N  N  II  N N  N  G       !!!           |
|           W WW W  AAAAAA  RRRRR   N  N N  II  N  N N  G  GGG   !            |
|           WW  WW  A    A  R   R   N   NN  II  N   NN  G    G                |
|           W    W  A    A  R    R  N    N  II  N    N   GGGG   !!!           |
|     For optimal performance we recommend to set                             |
|       NCORE = 2 up to number-of-cores-per-socket                            |
|     This setting can greatly improve the performance of VASP for DFT.       |
|     The default, NCORE=1 might be grossly inefficient on modern             |
|     multi-core architectures or massively parallel machines. Do your        |
|     Unfortunately you need to use the default for GW and RPA                |
|     calculations (for HF NCORE is supported but not extensively tested      |
|     yet).                                                                   |

   TITEL  = PAW_PBE Be 06Sep2000
   POMASS =    9.013; ZVAL   =    2.000    mass and valenz
   ENMAX  =  247.543; ENMIN  =  185.658 eV

   TITEL  = PAW_PBE B 06Sep2000
   POMASS =   10.811; ZVAL   =    3.000    mass and valenz
   ENMAX  =  318.614; ENMIN  =  238.960 eV

   TITEL  = PAW_PBE N 08Apr2002
   POMASS =   14.001; ZVAL   =    5.000    mass and valenz
   ENMAX  =  400.000; ENMIN  =  300.000 eV

  PAW_PBE Be 06Sep2000                  :
  PAW_PBE B 06Sep2000                   :
  PAW_PBE N 08Apr2002                   :

 POSCAR: B12BeN2.cif
  positions in direct lattice
  velocities in cartesian coordinates
 exchange correlation table for  LEXCH =        8
   RHO(1)=    0.500       N(1)  =     2000
   RHO(2)=  100.500       N(2)  =     4000

 ion  position               nearest neighbor table
   1  0.500  0.500  0.500-  14 1.54  15 1.54
   2  0.669  0.003  0.003-  13 1.73   7 1.79   3 1.79  11 1.80   5 1.81   9 1.81
   3  0.997  0.331  0.003-  12 1.73   7 1.79   2 1.79  10 1.80   4 1.81   9 1.81
   4  0.324  0.197  0.197-  14 1.53  10 1.74   6 1.74  13 1.80   3 1.81   7 1.81
   5  0.803  0.676  0.197-  14 1.53  11 1.74   6 1.74  12 1.80   7 1.81   2 1.81
   6  0.197  0.803  0.324-  15 1.53   4 1.74   5 1.74   7 1.80  12 1.81  13 1.81
   7  0.997  0.003  0.331-   8 1.73   3 1.79   2 1.79   6 1.80   5 1.81   4 1.81
   8  0.003  0.997  0.669-   7 1.73  13 1.79  12 1.79   9 1.80  11 1.81  10 1.81
   9  0.803  0.197  0.676-  14 1.53  10 1.74  11 1.74   8 1.80   2 1.81   3 1.81
  10  0.197  0.324  0.803-  15 1.53   4 1.74   9 1.74   3 1.80  13 1.81   8 1.81
  11  0.676  0.803  0.803-  15 1.53   5 1.74   9 1.74   2 1.80   8 1.81  12 1.81
  12  0.003  0.669  0.997-   3 1.73   8 1.79  13 1.79   5 1.80  11 1.81   6 1.81
  13  0.331  0.997  0.997-   2 1.73   8 1.79  12 1.79   4 1.80  10 1.81   6 1.81
  14  0.623  0.377  0.377-   9 1.53   5 1.53   4 1.53   1 1.54
  15  0.377  0.623  0.623-   6 1.53  11 1.53  10 1.53   1 1.54

  LATTYP: Found a trigonal (rhomboedric) cell.
 ALAT       =     5.2112899275
 COS(alpha) =     0.4521624842

  Lattice vectors:

 A1 = (  -5.2112894376,   0.0018319752,   0.0013229265)
 A2 = (  -2.3547171185,   1.4474337186,   4.4178871299)
 A3 = (  -2.3547214094,   4.6489598882,   0.0013229265)

Analysis of symmetry for initial positions (statically):
 Subroutine PRICEL returns:
 Original cell was already a primitive cell.

 Routine SETGRP: Setting up the symmetry group for a
 trigonal (rhombohedral) supercell.

 Subroutine GETGRP returns: Found 12 space group operations
 (whereof 12 operations were pure point group operations)
 out of a pool of 12 trial point group operations.

The static configuration has the point symmetry D_3d.

Analysis of symmetry for dynamics (positions and initial velocities):
 Subroutine PRICEL returns:
 Original cell was already a primitive cell.

 Routine SETGRP: Setting up the symmetry group for a
 trigonal (rhombohedral) supercell.

 Subroutine GETGRP returns: Found 12 space group operations
 (whereof 12 operations were pure point group operations)
 out of a pool of 12 trial point group operations.

The dynamic configuration has the point symmetry D_3d.

 Subroutine INISYM returns: Found 12 space group operations
 (whereof 12 operations are pure point group operations),
 and found     1 'primitive' translations

                                     Primitive cell

  volume of cell :     106.9935

  direct lattice vectors                    reciprocal lattice vectors
     5.211289438 -0.001831975 -0.001322927     0.191943144  0.097200111  0.070459267
    -2.354721409  4.648959888  0.001322927     0.000057748  0.215151177 -0.070459267
    -2.354717119  1.447433719  4.417887130     0.000057460 -0.000035320  0.226394744

  length of vectors
     5.211289927  5.211289927  5.211284273     0.226394657  0.226394657  0.226394754

  position of ions in fractional coordinates (direct lattice)
     0.499999938  0.499999938  0.500000000
     0.669343160  0.003255530  0.003255088
     0.996745697  0.330658076  0.003255352
     0.323960958  0.197328566  0.197327311
     0.802673069  0.676040595  0.197327434
     0.197328166  0.802673479  0.323960872
     0.996745119  0.003256033  0.330657275
     0.003256033  0.996745119  0.669342725
     0.802673479  0.197328166  0.676039128
     0.197328566  0.323960958  0.802672689
     0.676040595  0.802673069  0.802672566
     0.003255530  0.669343160  0.996744912
     0.330658076  0.996745697  0.996744648
     0.623427178  0.376574435  0.376575646
     0.376574435  0.623427178  0.623424354

  ion indices of the primitive-cell ions
   primitive index   ion index
                 1           1
                 2           2
                 3           3
                 4           4
                 5           5
                 6           6
                 7           7
                 8           8
                 9           9
                10          10
                11          11
                12          12
                13          13
                14          14
                15          15

 KPOINTS: Automatically generated mesh

Read explicit list of k-points.

 Found    302 k-points:

 Following reciprocal coordinates:
            Coordinates               Weight
  0.000000  0.000000  0.000000      0.001953
  0.125000  0.000000  0.000000      0.011719
  0.250000  0.000000  0.000000      0.011719
  0.375000  0.000000  0.000000      0.011719
  0.500000  0.000000  0.000000      0.005859
  0.125000  0.125000  0.000000      0.011719
  0.250000  0.125000  0.000000      0.023438
  0.375000  0.125000  0.000000      0.023438
  0.500000  0.125000  0.000000      0.023438
 -0.375000  0.125000  0.000000      0.023438
 -0.250000  0.125000  0.000000      0.023438
 -0.125000  0.125000  0.000000      0.011719
  0.250000  0.250000  0.000000      0.011719
  0.375000  0.250000  0.000000      0.023438
  0.500000  0.250000  0.000000      0.023438
 -0.375000  0.250000  0.000000      0.023438
 -0.250000  0.250000  0.000000      0.011719
  0.375000  0.375000  0.000000      0.011719
  0.500000  0.375000  0.000000      0.023438
 -0.375000  0.375000  0.000000      0.011719
  0.500000  0.500000  0.000000      0.005859
  0.125000  0.125000  0.125000      0.011719
  0.250000  0.125000  0.125000      0.011719
  0.375000  0.125000  0.125000      0.011719
  0.500000  0.125000  0.125000      0.011719
 -0.375000  0.125000  0.125000      0.011719
 -0.250000  0.125000  0.125000      0.011719
 -0.125000  0.125000  0.125000      0.003906
  0.125000  0.250000  0.125000      0.023438
  0.250000  0.250000  0.125000      0.023438
  0.375000  0.250000  0.125000      0.023438
  0.500000  0.250000  0.125000      0.023438
 -0.375000  0.250000  0.125000      0.023438
 -0.250000  0.250000  0.125000      0.011719
  0.125000  0.375000  0.125000      0.023438
  0.250000  0.375000  0.125000      0.023438
  0.375000  0.375000  0.125000      0.023438
  0.500000  0.375000  0.125000      0.023438
 -0.375000  0.375000  0.125000      0.011719
  0.125000  0.500000  0.125000      0.011719
  0.250000  0.500000  0.125000      0.023438
  0.375000  0.500000  0.125000      0.023438
  0.500000  0.500000  0.125000      0.011719
  0.250000 -0.375000  0.125000      0.023438
  0.375000 -0.375000  0.125000      0.011719
  0.250000 -0.250000  0.125000      0.011719
  0.250000  0.250000  0.250000      0.011719
  0.375000  0.250000  0.250000      0.011719
  0.500000  0.250000  0.250000      0.011719
 -0.375000  0.250000  0.250000      0.011719
 -0.250000  0.250000  0.250000      0.003906
  0.250000  0.375000  0.250000      0.023438
  0.375000  0.375000  0.250000      0.023438
  0.500000  0.375000  0.250000      0.023438
 -0.375000  0.375000  0.250000      0.011719
  0.250000  0.500000  0.250000      0.011719
  0.375000  0.500000  0.250000      0.023438
  0.500000  0.500000  0.250000      0.011719
  0.375000 -0.375000  0.250000      0.011719
  0.375000  0.375000  0.375000      0.011719
[...]
  0.000000  0.240741  0.000000      0.000000
  0.000000  0.259259  0.000000      0.000000
  0.000000  0.277778  0.000000      0.000000
  0.000000  0.296296  0.000000      0.000000
  0.000000  0.314815  0.000000      0.000000
  0.000000  0.333333  0.000000      0.000000
  0.000000  0.351852  0.000000      0.000000
  0.000000  0.370370  0.000000      0.000000
  0.000000  0.388889  0.000000      0.000000
  0.000000  0.407407  0.000000      0.000000
  0.000000  0.425926  0.000000      0.000000
  0.000000  0.444444  0.000000      0.000000
  0.000000  0.462963  0.000000      0.000000
  0.000000  0.481481  0.000000      0.000000
  0.000000  0.500000  0.000000      0.000000

 Following cartesian coordinates:
            Coordinates               Weight
  0.000000  0.000000  0.000000      0.001953
  0.023993  0.012150  0.008807      0.011719
  0.047986  0.024300  0.017615      0.011719
  0.071979  0.036450  0.026422      0.011719
  0.095972  0.048600  0.035230      0.005859
  0.024000  0.039044  0.000000      0.011719
  0.047993  0.051194  0.008807      0.023438
  0.071986  0.063344  0.017615      0.023438
  0.095979  0.075494  0.026422      0.023438
 -0.071971 -0.009556 -0.035230      0.023438
 -0.047979  0.002594 -0.026422      0.023438
 -0.023986  0.014744 -0.017615      0.011719
  0.048000  0.078088  0.000000      0.011719
  0.071993  0.090238  0.008807      0.023438
  0.095986  0.102388  0.017615      0.023438
 -0.071964  0.017338 -0.044037      0.023438
 -0.047971  0.029488 -0.035230      0.011719
[...]
  366                m_alltoallv_z                         0.000118                    6   7
  367                map_scatter                           0.009160                    6   7
  368        ggaall_grid                           0.022800                            1   3
  369        m_sumb_d                              0.000190                            5   3
  370        pothar                                0.000131                            1   3
  371          m_sumb_d                              0.000063                          1   4
  372        m_bcast_d                             0.000016                            1   3
  373      potlok_metagga                        0.000000                              1   2
  374      set_dd_magatom                        0.000004                              1   2
  375      set_dd_paw                            0.032180                              1   2
  376        m_sumb_d                              0.032167                            7   3
  377      densta                                0.002420                              1   2
  378        m_sumb_d                              0.000945                           18   3

 Flat profile

 fock_fwd                              647.828809        1812
 phaser_hf                             471.742912     1082368
 dllmm_trans_eccp_nl_fock_acc          210.542175     1391616
 redis_pw                               50.838037       71565
 fock_bck                               37.911704        1812
 spher                                  33.772747        3946
 rpromu_hf_acc                          32.444469     2473984
 fock_force                             27.066480           1
 eddav                                  27.009881           6
 lapack                                 20.429807       13105
 batched_fft                            13.465645     2164736
 fock_set_gfac_vkpt                     13.334773      927744
 fock_set_fsg                           12.999763          13
 m_sumb_d                               11.924498       71354
 racc0mu_hf_acc                         11.711070     1082368
 m_bcast_d                               9.319614       26222
 fft_and_gather                          8.770249        2114
 fft3d                                   8.249411     1119712
 total_time                              7.884292           1
 fock_set_gfac_der                       6.804281      154624
 depsum_two_bands_rholm_trace_m          6.534881      927744
 apply_gfac_exchange_mu_acc              6.134861      927744
 contraction                             5.437895     1391616
 pw_charge_trace_mu_acc                  4.507906     1082368
 calc_dllmm_trans_and_overl_foc          4.295934      927744
 vhamil_trace_mu_acc                     4.119981      927744
 init_acc                                3.887666           1
 m_alltoall_d                            3.641716      135461
 fock_all_dblbuf                         3.354138           6
 fock_set_fsg_der                        2.734546           1
 acc_cufft_makeplan                      2.371293          33
 eccp                                    2.244798        3624
 strenl                                  1.199791           1
 m_alltoallv_z                           1.148748         136
 depsum_two_bands_rholm_trace_m          1.121703      154624
 fftwav                                  1.072407      154896
 fock_charge_mu                          1.068297     1082368
 depsum_sym                              1.066817           7
 w1_copy                                 1.062521      188958
 m_bcast_z                               1.013847       27602
 soft_charge_sym                         0.975031           7
 fock_ace_acc_apply                      0.894713       13105
 apply_gfac_der_mu                       0.668588      154624
 apply_gfac_weight_mu                    0.545089      154624
 orth1                                   0.498058       43543
 hamiltmu                                0.475662       13105
 redis_proj                              0.448916       49702
 fock_ace_construct                      0.416574           6
 proj1_acc                               0.412246        9664
 phase                                   0.376839        7853
 choleski                                0.302829        2114
 projlat_der                             0.289657         302
 fft3d_mpi                               0.277077      964938
 overl1                                  0.271985       16729
 reduce                                  0.270571        1812
 projmu_acc                              0.221696        9481
 vnlac0_acc                              0.202533       16729
 fftwav_mpi                              0.194061      154896
 fornl                                   0.188167           1
 ggemm                                   0.186330       16729
 ggaall_grid                             0.185104           8
 overl                                   0.183668       22888
 map_scatter                             0.166069         136
 setup_precond                           0.133229        3624
 m_ibcast_z_from                         0.120995      253680
 newband                                 0.093560       14917
 pw_charge                               0.087746        3584
 w1_dot                                  0.085490        3624
 wrk_allocate                            0.083789           1
 w1_daxpy                                0.083708       13105
 proj                                    0.082346         302
 lincom                                  0.080466        3926
 vhamil                                  0.073547       13105
 m_ireduce_z_to                          0.072372      173952
 fftext_mpi                              0.069962       16729
 projxyz                                 0.068333         302
 proall                                  0.064268           1
 apply_precond                           0.062509        9481
 kinhamil                                0.061843       13105
 orthch                                  0.050001           1
 acc_init_cublas                         0.039827           1
 elmin                                   0.036318           1
 acc_init_cusolver                       0.022908           1
 force_and_stress                        0.015753           1
 rspher_all                              0.011711          10
 w1_projall                              0.011671        9481
 potlok                                  0.011443           7
 densta                                  0.010808           7
 setdij_                                 0.008653          34
 fftbas_plan_mpi                         0.005427         122
 inisym                                  0.004575           1
 waitred                                 0.004172        1812
 waitgth                                 0.003936        1812
 map_gather                              0.002697         136
 augmentation_charge                     0.002379           7
 truncate_high_frequency_w1              0.001733       16729
 dfftw_execute                           0.001410          51
 wrk_deallocate                          0.001209           1
 forloc                                  0.000776           1
 map_forward                             0.000721         118
 map_backward                            0.000699         126
 pothar                                  0.000555           8
 stufak                                  0.000477           1
 forhar                                  0.000369           2
 fewald                                  0.000353           1
 strehar                                 0.000314           1
 strelo                                  0.000278           1
 chggra                                  0.000245           1
 strkin                                  0.000241           1
 set_charge                              0.000224           7
 set_dd_paw                              0.000207           8
 rsp                                     0.000174           1
 fftbrc_mpi                              0.000079         122
 fft_gq                                  0.000041           7
 posmap                                  0.000040           2
 set_dd_magatom                          0.000033           8
 vectorpot                               0.000031           7
 rcp                                     0.000028           1
 crpa_reader                             0.000026           1
 acc_cufft_makeplans                     0.000015           5
 fordep                                  0.000012           1
 potlok_metagga                          0.000001           7
 rotate_active_occupied_orbital          0.000001           1
 redis_pw_over_bands                     0.000000           1
  summed up times     1732.298559904099

 Accumulative profile

 total_time                           1732.298560           1
 elmin                                1307.026495           1
 fock_all_dblbuf                      1176.760489           6
 fock_fwd                             1133.811398        1812
 phaser_hf                             471.742912     1082368
 fock_set_gfac_vkpt                    416.604418      927744
 force_and_stress                      393.488659           1
 fock_force                            388.297662           1
 dllmm_trans_eccp_nl_fock_acc          210.542175     1391616
 eddav                                 119.274163           6
 fock_set_gfac_der                      75.277548      154624
 redis_pw                               52.506119       71565
 fock_bck                               38.072762        1812
 spher                                  33.772747        3946
 rpromu_hf_acc                          32.444469     2473984
 projlat_der                            31.197274         302
 fock_charge_mu                         24.943857     1082368
 lapack                                 20.429807       13105
 fock_ace_acc_apply                     18.376564       13105
 batched_fft                            13.465645     2164736
 fock_set_fsg                           12.999763          13
 m_sumb_d                               11.924498       71354
 racc0mu_hf_acc                         11.711070     1082368
 m_bcast_d                               9.319614       26222
 fft_and_gather                          8.994625        2114
 fft3d_mpi                               8.677037      964938
 fft3d                                   8.249411     1119712
 fock_ace_construct                      7.450380           6
 depsum_two_bands_rholm_trace_m          6.534881      927744
 apply_gfac_exchange_mu_acc              6.134861      927744
 contraction                             5.437895     1391616
 newband                                 4.948171       14917
 strenl                                  4.517322           1
 pw_charge_trace_mu_acc                  4.507906     1082368
 calc_dllmm_trans_and_overl_foc          4.295934      927744
 vhamil_trace_mu_acc                     4.119981      927744
 init_acc                                3.887666           1
 m_alltoall_d                            3.641716      135461
 orthch                                  3.046857           1
 wrk_allocate                            2.828829           1
 fock_set_fsg_der                        2.734546           1
 fftwav_mpi                              2.441769      154896
 redis_proj                              2.422549       49702
 set_charge                              2.419393           7
 acc_cufft_makeplan                      2.371293          33
 fftwav                                  2.247708      154896
 eccp                                    2.244798        3624
 acc_cufft_makeplans                     1.593667           5
 potlok                                  1.485145           7
 fftbrc_mpi                              1.325850         122
 fftbas_plan_mpi                         1.325771         122
 soft_charge_sym                         1.306793           7
 map_forward                             1.239217         118
 m_alltoallv_z                           1.148748         136
 hamiltmu                                1.145355       13105
 depsum_two_bands_rholm_trace_m          1.121703      154624
 depsum_sym                              1.107007           7
 w1_copy                                 1.062521      188958
 m_bcast_z                               1.013847       27602
 apply_gfac_der_mu                       0.668588      154624
 apply_gfac_weight_mu                    0.545089      154624
 orth1                                   0.498058       43543
 proj1_acc                               0.412246        9664
 phase                                   0.376839        7853
 reduce                                  0.342943        1812
 choleski                                0.302829        2114
 overl1                                  0.271985       16729
 set_dd_paw                              0.257752           8
 kinhamil                                0.234642       13105
 w1_projall                              0.233367        9481
 projmu_acc                              0.221696        9481
 fftext_mpi                              0.220842       16729
 fornl                                   0.211457           1
 vnlac0_acc                              0.202533       16729
 ggemm                                   0.186330       16729
 ggaall_grid                             0.185104           8
 overl                                   0.183668       22888
 map_scatter                             0.166069         136
 proall                                  0.157796           1
 setup_precond                           0.133229        3624
 m_ibcast_z_from                         0.120995      253680
 proj                                    0.090009         302
 pw_charge                               0.087746        3584
 w1_dot                                  0.085490        3624
 w1_daxpy                                0.083708       13105
 lincom                                  0.080466        3926
 map_backward                            0.079717         126
 vhamil                                  0.073547       13105
 m_ireduce_z_to                          0.072372      173952
 projxyz                                 0.068810         302
 apply_precond                           0.062509        9481
 acc_init_cublas                         0.039827           1
 acc_init_cusolver                       0.022908           1
 setdij_                                 0.019252          34
 densta                                  0.017358           7
 rspher_all                              0.011711          10
 augmentation_charge                     0.005369           7
 inisym                                  0.004615           1
 fft_gq                                  0.004439           7
 waitred                                 0.004172        1812
 waitgth                                 0.003936        1812
 map_gather                              0.002697         136
 chggra                                  0.002561           1
 fordep                                  0.001946           1
 truncate_high_frequency_w1              0.001733       16729
 pothar                                  0.001556           8
 dfftw_execute                           0.001410          51
 wrk_deallocate                          0.001209           1
 forloc                                  0.000899           1
 fewald                                  0.000770           1
 forhar                                  0.000518           2
 stufak                                  0.000477           1
 strehar                                 0.000349           1
 strelo                                  0.000324           1
 strkin                                  0.000290           1
 rsp                                     0.000174           1
 posmap                                  0.000040           2
 set_dd_magatom                          0.000033           8
 vectorpot                               0.000031           7
 rcp                                     0.000028           1
 crpa_reader                             0.000026           1
 potlok_metagga                          0.000001           7
 rotate_active_occupied_orbital          0.000001           1
 redis_pw_over_bands                     0.000000           1

Profiling took   2.607640  1.539522  0.003710  0.003623 seconds
Profiling took   1.477130 seconds